 V  O                                   
   1.00000000000000     
     6.0124836066237615   -0.0898143176982531    0.1137626824358974
    -1.0128990125986361    5.6311861771114220    0.6878888135107767
     0.3731094644137929   -0.3419480341871433    3.5471762707266041
   V    O 
     2     9
Direct
 -0.7159208099096483  0.0687441916446949  0.4994594581799904
  0.7189832879769303  0.4495356708866066 -0.0118525541105401
 -0.0788382387495804  0.3804458943888993 -0.4528646731473487
  0.8031564847791911 -0.4265987794651802 -0.5363856850023434
  0.2152139490327987  0.2241114458458701 -0.0123089193266298
  0.3932799765127665  0.3708244049633728  0.7482607188164635
  0.1734058796981355  0.8093661433275133  0.2247761943963908
  0.5631609607698556  0.7350607380813206  0.0027145539622226
  0.7043946735042131 -0.0659277044734846  0.9253845789293556
  0.5862181618160176  0.1659412370407900  0.2451735384253110
  0.1369456745693200  0.7884967577596032  0.8676427888771414
 
  0.00000000E+00  0.00000000E+00  0.00000000E+00
  0.00000000E+00  0.00000000E+00  0.00000000E+00
  0.00000000E+00  0.00000000E+00  0.00000000E+00
  0.00000000E+00  0.00000000E+00  0.00000000E+00
  0.00000000E+00  0.00000000E+00  0.00000000E+00
  0.00000000E+00  0.00000000E+00  0.00000000E+00
  0.00000000E+00  0.00000000E+00  0.00000000E+00
  0.00000000E+00  0.00000000E+00  0.00000000E+00
  0.00000000E+00  0.00000000E+00  0.00000000E+00
  0.00000000E+00  0.00000000E+00  0.00000000E+00
  0.00000000E+00  0.00000000E+00  0.00000000E+00
