 V  O                                   
    1.000000000000000     
     5.8082534428725330    0.0000000000000000    0.0000000000000000
     0.4180586056082737    3.0747132908532633    0.0000000000000000
     2.5332907655245878    2.6013694957399238    2.8174405209789541
   V    O 
     3     5
Direct
  0.3913894205479238  0.5007883412855989  0.2400399868084833
  0.4941747404995169  0.6415498595324465  0.0736655783659117
  0.9783994782218883  0.6415498595324465  0.0736655783659117
  0.3013884286217987  0.2954919242614977  0.5727888036936264
  0.3619840464289510  0.5183259223241308  0.4896015994723371
  0.4831488964940860  0.1339847384271238  0.5727888036936264
  0.5693395559013510  0.0577581189575227  0.5727888036936264
  0.4201754332844700  0.2105512356792332  0.4046608459064771
 
  0.00000000E+00  0.00000000E+00  0.00000000E+00
  0.00000000E+00  0.00000000E+00  0.00000000E+00
  0.00000000E+00  0.00000000E+00  0.00000000E+00
  0.00000000E+00  0.00000000E+00  0.00000000E+00
  0.00000000E+00  0.00000000E+00  0.00000000E+00
  0.00000000E+00  0.00000000E+00  0.00000000E+00
  0.00000000E+00  0.00000000E+00  0.00000000E+00
  0.00000000E+00  0.00000000E+00  0.00000000E+00
