 V  O 
 1.0000000000000000
     5.8082534428725330    0.0000000000000000    0.0000000000000000
     0.4180586056082737    3.0747132908532633    0.0000000000000000
     2.5332907655245878    2.6013694957399238    2.8174405209789541
   3   5
Cartesian
  3.0907389070026969  2.1642132682965940  0.6762983854894768
  3.3251139070026969  2.1642132682965940  0.2075483854894768
  6.1376139070026969  2.1642132682965940  0.2075483854894768
  3.3251139070026969  2.3985882682965940  1.6137983854894768
  3.5594889070026969  2.8673382682965940  1.3794233854894768
  4.7313639070026969  4.9767132682965940  1.6137983854894768
  5.2001139070026969  4.7423382682965940  1.6137983854894768
  5.6688639070026969  1.2267132682965940  3.9575483854894768
