 V  O 
 1.0000000000000000
     6.9817593606147188    0.0000000000000000    0.0000000000000000
    -2.1982371615373411    3.4971529945404152    0.0000000000000000
    -1.3129948700162897    0.4851051691677374    4.7222827612721012
   2   8
Cartesian
  0.2118261645305441  3.2098790818540763  2.9705163806360506
  3.4930761645305441  3.9130040818540763  2.2673913806360506
 -0.7256738354694559  2.9755040818540763  3.4392663806360506
  0.2118261645305441  1.5692540818540763  0.8611413806360506
  0.6805761645305441 -0.3057459181459237  5.3142663806360506
  0.9149511645305441  4.6161290818540763  2.5017663806360506
  2.3212011645305441 -0.3057459181459237  0.6267663806360506
  2.5555761645305441  1.1005040818540763  1.3298913806360506
  3.7274511645305441  3.4442540818540763  3.2048913806360506
  3.9618261645305441 -0.3057459181459237  1.0955163806360506
