 V  O 
 1.0000000000000000
     5.8766569035723615    0.0000000000000000    0.0000000000000000
    -0.8186506707052490    4.7801232252007750    0.0000000000000000
    -0.6141883948431236    3.3037268606828039    3.8510661663386112
   2   6
Cartesian
  2.5148776690119945  2.1962219179417897  2.7165487081693058
  3.9211276690119945  6.6493469179417897  3.4196737081693058
 -0.2976223309880055  6.8837219179417897  0.8415487081693058
  0.4055026690119945  1.7274719179417897 -1.5022012918306942
  0.4055026690119945  6.4149719179417897  0.6071737081693058
  2.2805026690119945  4.5399719179417897  2.2477987081693058
  4.1555026690119945  2.1962219179417897  3.6540487081693058
  4.3898776690119945  1.7274719179417897  3.4196737081693058
