 V  O                                   
    1.000000000000000     
     5.2914942107815222   -0.0214308035397251    0.0001194265393509
     0.0636094070158432    4.6214667713432647   -0.7603009563460535
    -2.0754828402700976   -2.4384191177304437    6.3348395168810283
   V    O 
     3     5
Direct
  0.0378578797463008  0.5422026718730396 -0.1909216391131641
  0.2847974016739730  0.3303926832825368  0.9517205688068784
 -0.5764694279531301 -0.0641029322435627  0.8743451240426711
 -0.3663681132745368  0.0523579025701968 -0.8038966290722784
  0.2433208356521397  0.0992811577710911  0.2344940750780583
  0.5199413652085637  0.8101789018794019  0.6275374738699333
 -0.1915752332412801  0.1941153975127780  0.6087928898454081
  0.0484852921879737  0.0355742173545187  0.6979181365424829
 
  0.00000000E+00  0.00000000E+00  0.00000000E+00
  0.00000000E+00  0.00000000E+00  0.00000000E+00
  0.00000000E+00  0.00000000E+00  0.00000000E+00
  0.00000000E+00  0.00000000E+00  0.00000000E+00
  0.00000000E+00  0.00000000E+00  0.00000000E+00
  0.00000000E+00  0.00000000E+00  0.00000000E+00
  0.00000000E+00  0.00000000E+00  0.00000000E+00
  0.00000000E+00  0.00000000E+00  0.00000000E+00
