 V  O 
 1.0000000000000000
     4.4234700000000000    0.0000000000000000    0.0000000000000000
     0.0674253029282028    3.5185940382665684    0.0000000000000000
    -1.7398950385475391   -1.1811784931649758    4.1434857526148416
   3   5
Cartesian
  2.6964027151161294  2.2004297648095390  0.0376228506337428
  0.2215369353162999 -0.1589268117545042  3.8714659129556774
  4.1700789177108266  3.3752531282463636  0.0376228506337428
  4.1404442036490616  2.9065155091101014  0.5063753938270598
  2.6349052457340378  2.1941126758396012  1.1342377899207867
  0.9920948859156246  2.4221529071014380  3.1683578155944647
  3.4350998765604506  1.9626947459428095  1.1342377899207867
 -0.9883729138254463  2.6658086425940666  2.5404954195007377
