 V  O 
 1.0000000000000000
     4.0640730204592783    0.0000000000000000    0.0000000000000000
    -0.5639849884048267    4.5556047308419974    0.0000000000000000
     0.6845884565408409    0.0073922138366916    3.7682615913311439
   3   5
Cartesian
  0.8032757442976459 -0.7946734026606554  2.0599120456655715
  0.8032757442976459  1.3147015973393446  2.0599120456655715
  1.0376507442976459  1.0803265973393446  1.8255370456655715
 -0.1342242557023541  3.8928265973393446  2.0599120456655715
  1.5064007442976459  6.0022015973393446  1.1224120456655715
  1.7407757442976459 -0.0915484026606554  3.7005370456655715
  4.3189007442976459  5.5334515973393446 -0.0494629543344285
  6.6626507442976459  1.3147015973393446  2.2942870456655715
