 V  O                                   
   1.00000000000000     
     6.6510412648473549   -0.6131170461226663   -1.6846404778286588
    -1.3120999840011518    4.6534325352312988    0.9129530102284740
    -2.3497018589878587    3.1065514176255684    7.9134893453542086
   V    O 
     3     3
Direct
  0.5631838968274810  0.4273817996496783  0.4722566298603447
  0.0663196668782885  0.4707982655427764  0.3397045133939754
  0.1232017562607828  0.3395002030164516  0.2125068553098381
  0.6473669182037671 -0.0585715326467807  0.9563240096597454
  0.2893374239009668  0.7765801480332103  0.6444223282154449
  0.3105803379287108  0.0443111164046711  0.3747956635606404
 
  0.00000000E+00  0.00000000E+00  0.00000000E+00
  0.00000000E+00  0.00000000E+00  0.00000000E+00
  0.00000000E+00  0.00000000E+00  0.00000000E+00
  0.00000000E+00  0.00000000E+00  0.00000000E+00
  0.00000000E+00  0.00000000E+00  0.00000000E+00
  0.00000000E+00  0.00000000E+00  0.00000000E+00
