 V  O                                   
   1.00000000000000     
     3.2187046104466583   -0.4599453963284389    0.7637607406296814
    -1.5531493411785242    2.7109712893901312   -0.1440933893403754
     0.8943748416075147    0.2154149905421435    2.9603870907547276
   V    O 
     1     1
Direct
  0.5067175966022678  0.7177340952609537  0.2574580217409333
  0.4932824033977323  0.2822659047390460  0.7425419782590668
 
  0.00000000E+00  0.00000000E+00  0.00000000E+00
  0.00000000E+00  0.00000000E+00  0.00000000E+00
