 V  O 
 1.0000000000000000
     5.1110223215981945    0.0000000000000000    0.0000000000000000
    -1.5395363634130024    7.0856132289308533    0.0000000000000000
     0.8492164371147094   -0.0394132345598885    2.9950029733513688
   1   1
Cartesian
  5.4916011976499508  5.8668499971854828 -1.9009360133243156
 -1.0708988023500492  1.1793499971854828  4.8959389866756844
