 V  O 
 1.0000000000000000
     3.7078981244795681    0.0000000000000000    0.0000000000000000
    -1.9502131190059859    4.2262391239103865    0.0000000000000000
    -1.0057386575342522   -2.4378832253014342    2.6064772460265555
   3   3
Cartesian
 -3.0224643260303345  1.6363654493044759  0.5219886230132778
  0.4931606739696655  1.8707404493044759  2.8657386230132778
  2.3681606739696655  0.2301154493044759  1.9282386230132778
  0.7275356739696655 -0.2386345506955241  0.2876136230132778
  0.7275356739696655  2.3394904493044759  1.6938636230132778
  0.9619106739696655 -0.4730095506955241  0.5219886230132778
