 V  O                                   
   1.00000000000000     
     4.6165771658600718    0.2610473687317608   -0.2025612009664154
    -0.3117253422956840    2.6654891402773195    1.2081823964420191
    -0.3375405791684787    1.3620901803738741    3.8470316101279289
   V    O 
     1     1
Direct
  0.4990878062536850 -0.0011441108126526  0.7501945497158431
  0.5009121937463155  0.0011441108126530  0.2498054502841566
 
  0.00000000E+00  0.00000000E+00  0.00000000E+00
  0.00000000E+00  0.00000000E+00  0.00000000E+00
