 V  O 
 1.0000000000000000
     5.3806500797998380    0.0000000000000000    0.0000000000000000
    -0.7364507765639566    5.2247261011294501    0.0000000000000000
    -0.3387727534333462    1.0040656564793431    5.1688690984716281
   1   1
Cartesian
  2.1527132749012674  1.2393958788043964  3.5219345492358141
  2.1527132749012674  4.9893958788043964  1.6469345492358141
