 V  O                                   
    1.000000000000000     
     6.6787483667089367   -0.2541913404090491    0.1360539896374351
    -2.3982166296302538    3.9281972847375743    0.2843785657394129
     0.7817453830968696    2.3408469783745107    4.2121519168766950
   V    O 
     3     5
Direct
  0.2019738996919792  0.4130663423788850  0.7210627166712562
  0.7430907991452109  0.5918463155302388  0.7541190698205127
 -0.1600588792012415  0.3447939251696494  0.2805081446882211
  0.5357840424200092  0.7695357741813167  0.6886162211283858
  0.5463621923590055  0.1165312992459524  0.1419482652650071
  0.0587944089336071 -0.0642425890873135 -0.8854016602596788
  0.0472201638436400 -0.3908097472867549 -0.2078444368692250
  0.0268333728077896  0.2192786798680256  0.5069916795555215
 
  0.00000000E+00  0.00000000E+00  0.00000000E+00
  0.00000000E+00  0.00000000E+00  0.00000000E+00
  0.00000000E+00  0.00000000E+00  0.00000000E+00
  0.00000000E+00  0.00000000E+00  0.00000000E+00
  0.00000000E+00  0.00000000E+00  0.00000000E+00
  0.00000000E+00  0.00000000E+00  0.00000000E+00
  0.00000000E+00  0.00000000E+00  0.00000000E+00
  0.00000000E+00  0.00000000E+00  0.00000000E+00
