 V  O                                   
   1.00000000000000     
    26.3791593706196146   32.7341809223634286   17.1376179094287622
    23.6590058444080320   42.1055528535858343   19.8078978726944754
    18.0381721702322544   28.2127957677745052   17.8594260805690404
   V    O 
     1     1
Direct
  0.1145302675486917 -0.3083441004051357  0.6804103563799129
 -0.1145302675486917  0.3083441004051357 -0.6804103563799129
 
  0.00000000E+00  0.00000000E+00  0.00000000E+00
  0.00000000E+00  0.00000000E+00  0.00000000E+00
