 V  O 
 1.0000000000000000
     5.7248052492291448    0.0000000000000000    0.0000000000000000
    -0.2643960068792814    4.3507349580951757    0.0000000000000000
     0.6765348927427487    0.7593246770065447    3.5339059334530321
   1   1
Cartesian
  3.5372220675463057  3.1409673175508601  3.6419529667265156
  2.5997220675463057  1.9690923175508601 -0.1080470332734844
