 V  O 
 1.0000000000000000
     4.0967799999999999    0.0000000000000000    0.0000000000000000
     2.3910483721296951    3.3685270726292127    0.0000000000000000
     2.9781092549935351   -0.1162586300631628    3.8258506602659863
   2   5
Cartesian
  3.8270901473488523 -0.0682974046290388  2.3816685530287818
  4.4651120153196651  3.0658619658410551  2.1472969415808874
  2.5901139550843011  0.9564757264749935  0.7410672728935216
  5.1682585768843010  0.9564757264749935  0.7410672728935216
  5.1682301032587148  2.8314895764512800  3.0847833873724646
  1.3058404835024540  0.4877451843186385  0.7410672728935216
  6.5094032519418450  3.1531539261922257  3.5535648687748562
