 V  O 
 1.0000000000000000
     4.5641128561925921    0.0000000000000000    0.0000000000000000
    -0.4392477632451990    3.8326593013797665    0.0000000000000000
     1.0141904817074738    0.8152090564701513    4.1600062241669962
   2  10
Cartesian
  1.9835902873274334  4.8434654289249588  3.6425031120834976
  2.9210902873274334  1.7965904289249588  1.7675031120834976
  0.8117152873274334 -1.0159095710750412  0.1268781120834976
  1.2804652873274334 -1.0159095710750412  0.1268781120834976
  2.4523402873274334  1.3278404289249588  0.1268781120834976
  2.4523402873274334  3.6715904289249588  3.1737531120834976
  2.6867152873274334  3.2028404289249588  2.9393781120834976
  2.6867152873274334  3.2028404289249588  4.5800031120834976
  2.9210902873274334  3.4372154289249588  4.8143781120834976
  3.3898402873274334  3.2028404289249588  0.3612531120834976
  3.3898402873274334  3.2028404289249588  0.8300031120834976
  3.8585902873274334  2.0309654289249588  2.4706281120834976
