 V  O 
 1.0000000000000000
     7.6322366546471203    0.0000000000000000    0.0000000000000000
    -2.5541323372532783    5.4043399733679243    0.0000000000000000
    -2.5403752545850931   -0.8389463228268149    3.8208507009067487
   3   5
Cartesian
  3.4661301564043745  1.2280093252705546  0.6506597254533748
  3.7005051564043745  3.1030093252705546  2.5256597254533748
  3.9348801564043745  2.8686343252705546  2.2912847254533748
 -1.4557448435956255  0.5248843252705546 -2.3962152745466252
 -0.7526198435956255  0.2905093252705546  1.8225347254533748
 -0.7526198435956255  0.2905093252705546  2.2912847254533748
  0.8880051564043745  4.9780093252705546  3.6975347254533748
  1.1223801564043745  4.9780093252705546  4.4006597254533748
