 V  O                                   
   1.00000000000000     
    14.2399189332142537    5.6595192701425345   -5.7665899071032332
    -7.0586344672748913    4.5464542113068687    1.2537877714635510
    -3.5225112678767445   -1.8125585593987210    8.4294302987027585
   V    O 
     1     2
Direct
 -0.5314976899049259 -0.3661307254350692  0.0915303987009685
  0.0972268178359297  0.2968203467758238  0.9456561439584941
  0.9342708720689891  0.5693103786592454 -0.5371865426594629
 
  0.00000000E+00  0.00000000E+00  0.00000000E+00
  0.00000000E+00  0.00000000E+00  0.00000000E+00
  0.00000000E+00  0.00000000E+00  0.00000000E+00
