 V  O 
 1.0000000000000000
     4.4903356282896612    0.0000000000000000    0.0000000000000000
    -0.7477257708293356    3.5574559919313553    0.0000000000000000
     0.5175959974135469    0.5974291590280468    3.0982222267938866
   3   5
Cartesian
  2.0422123024369361 -0.7936511745202992  4.1272361133969433
  3.4484623024369361  2.0188488254797008  4.5959861133969433
  4.8547123024369361  5.0657238254797008  2.4866111133969433
 -0.3015376975630639  0.6125988254797008 -1.2633888866030567
 -0.3015376975630639  0.6125988254797008 -0.5602638866030567
  2.0422123024369361  5.7688488254797008  0.3772361133969433
  2.5109623024369361  3.4250988254797008 -0.0915138866030567
  2.7453373024369361 -0.0905261745202992  2.7209861133969433
