 V  O                                   
    1.000000000000000     
     5.1314619715371599    0.0000000000000000    0.0000000000000000
    -3.1806013300415104   10.9179682427836333    0.0000000000000000
     2.3285906982654399    0.8546975520639482    4.4285783220405586
   V    O 
     3     6
Direct
  0.2451379111894454  0.4792867039923294  0.4294355937107994
  0.4203683357408892  0.5097914403707406  0.5882055078614954
  0.8330893371758066  0.4661058484684304  0.3235889842770092
  0.9337354252274324  0.5930195988447622  0.1703618597473735
  0.3972300544181877  0.6122311664336877  0.3765122889939079
  0.7602564609590203  0.7056330623033418  0.0060491559756244
  0.1052724305797028  0.1678245004728893  0.1174385550304748
  0.0325370759116979  0.5941555060471089  0.0589724606925159
  0.7723729687978249  0.3719521730667097  0.4294355937107994
 
  0.00000000E+00  0.00000000E+00  0.00000000E+00
  0.00000000E+00  0.00000000E+00  0.00000000E+00
  0.00000000E+00  0.00000000E+00  0.00000000E+00
  0.00000000E+00  0.00000000E+00  0.00000000E+00
  0.00000000E+00  0.00000000E+00  0.00000000E+00
  0.00000000E+00  0.00000000E+00  0.00000000E+00
  0.00000000E+00  0.00000000E+00  0.00000000E+00
  0.00000000E+00  0.00000000E+00  0.00000000E+00
  0.00000000E+00  0.00000000E+00  0.00000000E+00
