 V  O                                   
   1.00000000000000     
     2.9571952541753270    0.6985046870116441    0.6610968622703918
     0.4957907665590277    2.9863519545216186    0.5480476341898157
     0.9812251639569097    3.6247516129015009    3.1548857314670453
   V    O 
     1     1
Direct
  0.2499119855260308 -0.0007042771958678  0.2498142007810993
  0.7500880144739697  0.0007042771958679  0.7501857992189005
 
  0.00000000E+00  0.00000000E+00  0.00000000E+00
  0.00000000E+00  0.00000000E+00  0.00000000E+00
