 V  O 
 1.0000000000000000
     4.6825894095174529    0.0000000000000000    0.0000000000000000
     0.1590228982942054    3.4604324620375437    0.0000000000000000
     0.5507140018033525    3.8233781634974235    1.7795033473862327
   1   1
Cartesian
  1.0555381548075058  4.2278428127674834  0.4210016736931159
  4.3367881548075058  3.0559678127674834  1.3585016736931159
