 V  O 
 1.0000000000000000
     5.8304499999999999    0.0000000000000000    0.0000000000000000
    -1.1998463166687792    4.6673433156750281    0.0000000000000000
     0.0060204323583437    1.3652976898948797    3.5361914745191503
   2   4
Cartesian
  4.0319727574547608  1.1986461484268323  0.1089854212446802
  4.2323562225707878  3.5632114635052003  1.2602986415186253
  1.7917360339566895  4.3079159246844991  0.0472788800143210
  1.8885881826631734  3.7975901954040685  0.3227835577941081
  2.5917510538156483  5.2038230528308560  2.4321571342595263
  3.9979811048216676  3.3288421840484714  2.9009146761217850
