 V  O                                   
    1.000000000000000     
    13.3258398899747448    1.4230760428154148   -1.8020356278742995
   -12.0088196344169429   27.0474527253999995   11.6075415340355708
    -5.5023606082713989    1.7286086262066620    7.3237642604296997
   V    O 
     3     6
Direct
  0.9882235513449331  0.3448091918666053  0.9553297767638186
 -0.5222167730555896 -0.3875330518159270 -0.9251790768365664
  0.3301777103367805  0.6017388183767132  0.8075222671075837
 -0.5586924559329076  0.3593869084240843  0.4188206727367501
  0.5566300367902897  0.1416448180915229 -0.3109665538581229
  0.2313554198802507  0.1582901394653847  0.7644372057746887
 -0.4446567872099623 -0.1133754888959511  0.1112563917841884
  0.5683840175513419  0.3837073807492658  0.9104227290556269
  0.3508052802948549  0.0113412837382980  0.7683465874720378
 
  0.00000000E+00  0.00000000E+00  0.00000000E+00
  0.00000000E+00  0.00000000E+00  0.00000000E+00
  0.00000000E+00  0.00000000E+00  0.00000000E+00
  0.00000000E+00  0.00000000E+00  0.00000000E+00
  0.00000000E+00  0.00000000E+00  0.00000000E+00
  0.00000000E+00  0.00000000E+00  0.00000000E+00
  0.00000000E+00  0.00000000E+00  0.00000000E+00
  0.00000000E+00  0.00000000E+00  0.00000000E+00
  0.00000000E+00  0.00000000E+00  0.00000000E+00
