 V  O 
 1.0000000000000000
     6.4849600000000001    0.0000000000000000    0.0000000000000000
    -6.6874909499035438    7.8981855894223072    0.0000000000000000
    -1.8990426246720162   -1.0822465743634619    4.9034165459256434
   3   6
Cartesian
  2.5456015089346637  1.6225872519646487  4.4384745890409736
  0.0690204546284583  2.7048710354648819  1.6444097728416238
  0.0689830355704924  3.1736300795532388  1.8787930837368696
  3.5070906725073874  1.2985413080149453  3.0506606040476387
 -2.2747576064209221  1.2986185605146969  2.8162772931523934
 -1.3691029385867191  0.6660580647262925  3.5194272258381307
 -0.6340833032368007  1.7673546766443118  1.4100264619463778
 -0.6341455346234226  2.0017379696438127  4.4569114352536543
  0.7402688658886630 -0.7402013276484632  3.7537615025679170
