 V  O                                   
    1.000000000000000     
    15.8107132440543587   -8.7481297197947310   -9.3517764088048967
   -15.9426941135130509   17.3908974265555614   12.3733992215480466
    -6.3097690076033475    1.0417781632044152   11.5690332317068822
   V    O 
     3     6
Direct
  0.6536881882518205  0.2572313523246825 -0.1563365434053346
  0.9715609380463313  0.1065400139958911  0.9331784782984688
  0.7529987454627548  0.2216202483750213  0.3518845605142666
  0.3723008760732093  0.7031724582953692  0.8813393596255561
  0.4646287017106941  0.5964973908330711  0.3007904031143912
  0.1811830253401587  0.7694327862213677  0.6504855165691379
  0.8188985339877618  0.3802610354003390  0.4305215661419739
 -0.0481617292680246 -0.0075306624007914 -0.6427602262547136
  0.3329027203953001 -0.5272246230449492 -0.2491031146037589
 
  0.00000000E+00  0.00000000E+00  0.00000000E+00
  0.00000000E+00  0.00000000E+00  0.00000000E+00
  0.00000000E+00  0.00000000E+00  0.00000000E+00
  0.00000000E+00  0.00000000E+00  0.00000000E+00
  0.00000000E+00  0.00000000E+00  0.00000000E+00
  0.00000000E+00  0.00000000E+00  0.00000000E+00
  0.00000000E+00  0.00000000E+00  0.00000000E+00
  0.00000000E+00  0.00000000E+00  0.00000000E+00
  0.00000000E+00  0.00000000E+00  0.00000000E+00
