 V  O                                   
    1.000000000000000     
    17.3848453147216411  -11.4182468580190584   11.4984829647672555
   -23.6073365894942597   27.3311204244944221  -20.3108673253512784
    12.2862412594378121   -9.8007247385883272   16.0755579528610610
   V    O 
     3     5
Direct
  0.9493822701204154  0.6927511849133847  0.3894425656045002
  0.8357613506042698  0.6834866165717792  0.9010318826457515
  0.8142629285252670  0.3679628350948580  0.3740625337056803
  0.0183238936673031  0.2396592513453031  0.3622618551021721
  0.2073834918653089  0.7024418197288576  0.6899383482953136
 -0.6316696460118714  0.4458191474212137 -0.0376347249273731
  0.3000657020083215  0.2541234134643039  0.5503802143390000
  0.5064900092209860 -0.3862442685397005  0.7705173252349731
 
  0.00000000E+00  0.00000000E+00  0.00000000E+00
  0.00000000E+00  0.00000000E+00  0.00000000E+00
  0.00000000E+00  0.00000000E+00  0.00000000E+00
  0.00000000E+00  0.00000000E+00  0.00000000E+00
  0.00000000E+00  0.00000000E+00  0.00000000E+00
  0.00000000E+00  0.00000000E+00  0.00000000E+00
  0.00000000E+00  0.00000000E+00  0.00000000E+00
  0.00000000E+00  0.00000000E+00  0.00000000E+00
