 V  O 
 1.0000000000000000
     4.2133611564136064    0.0000000000000000    0.0000000000000000
    -9.1691977207662632    6.0692183033521498    0.0000000000000000
    -2.0003794633357277   -3.7442928577839512    3.9269468218404433
   3   7
Cartesian
 -3.2906080138441922 -0.9469122772159011  3.2290984109202219
 -2.3531080138441922  0.9280877227840989  0.1822234109202219
 -2.3531080138441922  1.8655877227840989  3.4634734109202219
 -6.1031080138441922  0.9280877227840989  2.0572234109202219
 -4.4624830138441922 -0.4781622772159011 -0.7552765890797781
 -3.9937330138441922  2.8030877227840989  2.7603484109202219
 -3.7593580138441922  1.6312127227840989  2.9947234109202219
 -3.0562330138441922  0.9280877227840989  2.9947234109202219
 -2.8218580138441922  0.6937127227840989  1.1197234109202219
 -2.5874830138441922  3.2718377227840989  1.5884734109202219
