 V  O                                   
   1.00000000000000     
     3.5027996805111767    0.0352618045613496   -0.0762627349726400
    -0.6946474945350969    4.8584991181442785   -0.0485918794509482
    -0.9769840853379412   -1.7204491497915568    4.3578923734820485
   V    O 
     1     2
Direct
  0.0270164274378763  0.2045929791984558  0.2447135034795132
  0.9339398507889356  0.9186060356542866  0.6357123164144127
  0.5390437217731880  0.3768009851472576  0.6195741801060670
 
  0.00000000E+00  0.00000000E+00  0.00000000E+00
  0.00000000E+00  0.00000000E+00  0.00000000E+00
  0.00000000E+00  0.00000000E+00  0.00000000E+00
