 V  O 
 1.0000000000000000
     3.9674118383246366    0.0000000000000000    0.0000000000000000
    -0.4702078676068170    3.8894519251201083    0.0000000000000000
    -1.5688326739614566    0.2805861061380123    5.7004664030698633
   3   5
Cartesian
 -1.7604237266218181  1.3233002656290598  3.0553113265349321
 -1.5260487266218181  1.3233002656290598  3.9928113265349321
  2.6927012733781819  2.0264252656290598  0.9459363265349321
 -0.1197987266218181  1.3233002656290598  2.1178113265349321
  1.5208262733781819  0.6201752656290598  3.7584363265349321
  1.9895762733781819  3.1983002656290598  2.1178113265349321
  1.9895762733781819  6.0108002656290598  3.9928113265349321
  2.9270762733781819  0.8545502656290598  2.8209363265349321
