 V  O                                   
   1.00000000000000     
     7.7280630881158059   -1.0693146296117060   -1.6750962013372970
    -4.5996441181124057    6.0185730269158269    1.6295315456706050
    -2.9317131299082719   -1.0160779197995486    5.6012897299251465
   V    O 
     2     5
Direct
  0.7322728888130623  0.2231454149903232 -0.1138076446257395
  0.7092271976015984  0.3666831690608842  0.4176181476735928
  0.0845097416381925 -0.3921097947222095 -0.6452690125922074
  0.2132735546993345  0.2207403040743792 -0.4212839505505315
  0.0272764214011111  0.4841055110482270  0.2275386764386816
 -0.2025838304136420  0.7555319993928149  0.2095779338001530
  0.9360240262603415  0.8418933961555788  0.8256258498560597
 
  0.00000000E+00  0.00000000E+00  0.00000000E+00
  0.00000000E+00  0.00000000E+00  0.00000000E+00
  0.00000000E+00  0.00000000E+00  0.00000000E+00
  0.00000000E+00  0.00000000E+00  0.00000000E+00
  0.00000000E+00  0.00000000E+00  0.00000000E+00
  0.00000000E+00  0.00000000E+00  0.00000000E+00
  0.00000000E+00  0.00000000E+00  0.00000000E+00
