 V  O                                   
    1.000000000000000     
    13.4769753032784045   -4.0370812340660160   -2.0520422197108905
    -1.5167409626240280   15.2972205161009338    1.3254865757520846
     3.2636123135019894   12.3595101872351893    2.4545355749479825
   V    O 
     3     5
Direct
 -0.1219471563321496  0.0338829596844028  0.2924026059329705
  0.5714745995453907  0.3482708702440730  0.6968575346417363
  0.3599309383889718  0.1637828481244023 -0.7050958376454286
  0.0073445265198165 -0.4016254910289040  0.8195076364235845
 -0.1387216286314146 -0.3134046497472411  0.4583281747059456
 -0.1345377129638635 -0.5699053627766832 -0.1391119389096633
  0.8790685028529730  0.1484160634828626 -0.8649663547150905
  0.5773879306202780 -0.4094172379829144  0.4420781795659522
 
  0.00000000E+00  0.00000000E+00  0.00000000E+00
  0.00000000E+00  0.00000000E+00  0.00000000E+00
  0.00000000E+00  0.00000000E+00  0.00000000E+00
  0.00000000E+00  0.00000000E+00  0.00000000E+00
  0.00000000E+00  0.00000000E+00  0.00000000E+00
  0.00000000E+00  0.00000000E+00  0.00000000E+00
  0.00000000E+00  0.00000000E+00  0.00000000E+00
  0.00000000E+00  0.00000000E+00  0.00000000E+00
