 V  O                                   
    1.000000000000000     
    12.8936659883108309   -8.8259038280298370    3.0293614640597872
   -12.2631088180890018   27.6445246618593465   -6.4628512693138225
     2.6343967470151659   -3.0154168874216021    9.0209174923524706
   V    O 
     3     8
Direct
  0.0891074987005197  0.7748964752017632  0.8964779956384021
 -0.1279129914707532  0.5185289855836366  0.3551944486042966
 -0.7629499240465286  0.3647083082518389  0.8947924294937067
  0.5632584915732524 -0.3191175593154619  0.3536913288219207
 -0.7388480418806983 -0.9512287434770400  0.6593581490488178
  0.3624013954672922  0.7518598640167840 -0.5894700344501592
  0.6263348075914005  0.5174614410597073  0.3284277353335201
  0.8752557731582417 -0.5307136978646659  0.5953582743503275
  0.0537869316336512 -0.7676704966537807  0.8512798884791147
  0.8099890284942629  0.0720354631994420  0.3407993288672598
  0.7495770307793647  0.0692399599977889  0.8140904558128069
 
  0.00000000E+00  0.00000000E+00  0.00000000E+00
  0.00000000E+00  0.00000000E+00  0.00000000E+00
  0.00000000E+00  0.00000000E+00  0.00000000E+00
  0.00000000E+00  0.00000000E+00  0.00000000E+00
  0.00000000E+00  0.00000000E+00  0.00000000E+00
  0.00000000E+00  0.00000000E+00  0.00000000E+00
  0.00000000E+00  0.00000000E+00  0.00000000E+00
  0.00000000E+00  0.00000000E+00  0.00000000E+00
  0.00000000E+00  0.00000000E+00  0.00000000E+00
  0.00000000E+00  0.00000000E+00  0.00000000E+00
  0.00000000E+00  0.00000000E+00  0.00000000E+00
