 V  O 
 1.0000000000000000
     4.1484717583331214    0.0000000000000000    0.0000000000000000
    -1.8336570322185421    2.9389765216313983    0.0000000000000000
    -1.9843213512709790   -1.7108921410741942    3.7759731595726649
   3   3
Cartesian
 -2.7253783125781998  2.9577921902786022  1.3801740797863324
  1.9621216874218002  1.7859171902786022  4.1926740797863324
  2.6652466874218002 -2.1984578097213978  3.2551740797863324
 -1.3191283125781998 -0.3234578097213978  1.1457990797863324
 -0.3816283125781998  2.0202921902786022  1.8489240797863324
  0.7902466874218002 -0.5578328097213978 -0.4948259202136676
