 V  O 
 1.0000000000000000
     6.9441199999999998    0.0000000000000000    0.0000000000000000
    -0.5881098326980936    6.0774006243445742    0.0000000000000000
    -1.8676574811988849    0.6222271213947865    4.5446808843660955
   2   2
Cartesian
  4.3462144066085537  5.4815016141978106  1.1846619661277102
  3.8848444295540969  2.5880700308035247  1.0418680927409274
  0.1348171424877197  1.8849759752193109  0.8074988995341679
  2.4785749925293699  2.8224745275920742  1.5106064791544467
