 V  O                                   
    1.000000000000000     
    14.0682744706694614    4.9605666683980791   -8.3419152058217279
    -1.4410383490506842    9.6060275339969881   -1.8807042040813400
    -6.6658140186728998   -1.2588191325886680   18.8913831206310299
   V    O 
     3     6
Direct
  0.7781166667779531 -0.2239900298509973  0.1027079257785843
 -0.2895766826767400 -0.7994992587622324  0.7757460015488181
  0.9337498022375379  0.0637121136271447  0.5776465659394603
 -0.4526976356239449 -0.3259606443390789  0.0850982732756014
  0.9671177776346794  0.2361775804956722 -0.1055470303937173
 -0.1871282615199048 -0.4323699060519586  0.0878800707814923
  0.4237465832811581  0.4399163411145146 -0.8622109657256483
  0.6299378621255938  0.9046863180995933 -0.3011846202836049
  0.6967238877636704  0.6373374856673374 -0.8601262209209820
 
  0.00000000E+00  0.00000000E+00  0.00000000E+00
  0.00000000E+00  0.00000000E+00  0.00000000E+00
  0.00000000E+00  0.00000000E+00  0.00000000E+00
  0.00000000E+00  0.00000000E+00  0.00000000E+00
  0.00000000E+00  0.00000000E+00  0.00000000E+00
  0.00000000E+00  0.00000000E+00  0.00000000E+00
  0.00000000E+00  0.00000000E+00  0.00000000E+00
  0.00000000E+00  0.00000000E+00  0.00000000E+00
  0.00000000E+00  0.00000000E+00  0.00000000E+00
