 V  O 
 1.0000000000000000
     4.8636799999999996    0.0000000000000000    0.0000000000000000
    -1.6170451330140330    3.1730821116692880    0.0000000000000000
    -0.8647606208413108    1.1905407875165639    3.1360248641076796
   3   6
Cartesian
 -0.6605102179781163  3.4538510248108367  1.7763385637765130
  2.5736309942170630  0.8577028120453528  1.5419834256817462
  2.3863787591669787  4.1569618378977671  2.7138531969015038
  3.0077244416521891  2.6245383934650457  1.5419834256817462
  3.2421167249961216  2.6245228013694835  1.0732104289949302
  0.4877971138112013  0.7495209601230785  0.8388552909001632
  0.7221771907830044  1.2182725844322013  0.6044687925567552
  1.8940530306205650  1.6870283181014181  0.1357271561185804
  2.7934332363657179  1.0734071628035780  0.7496981040135818
