 V  O                                   
    1.000000000000000     
    12.5595940895346310    0.3281931103112453    0.9503642441383986
    -4.8131021993505634    6.6392270666282940    0.6025999394701458
    -2.5343944969404721    5.7235360916273219    4.2804585623143296
   V    O 
     3     5
Direct
  0.0475888080674981  0.5012863729147857  0.8128193440986383
  0.2250794113686401  0.2119598072677202  0.3959064429727683
  0.4944615051041578  0.5824951228691577  0.0449070564491826
  0.3991450323293579  0.6062927593994590  0.7340281937474815
  0.4844034354914341  0.5374853900804484  0.6936109558490755
 -0.8833498971619952  0.2545652989299740 -0.6182110260772997
  0.5277989546038203  0.1069673047778221  0.2507248883528840
  0.7048727501970798  0.1989379437606227  0.6862241446072579
 
  0.00000000E+00  0.00000000E+00  0.00000000E+00
  0.00000000E+00  0.00000000E+00  0.00000000E+00
  0.00000000E+00  0.00000000E+00  0.00000000E+00
  0.00000000E+00  0.00000000E+00  0.00000000E+00
  0.00000000E+00  0.00000000E+00  0.00000000E+00
  0.00000000E+00  0.00000000E+00  0.00000000E+00
  0.00000000E+00  0.00000000E+00  0.00000000E+00
  0.00000000E+00  0.00000000E+00  0.00000000E+00
