 V  O 
 1.0000000000000000
     6.2641000000000000    0.0000000000000000    0.0000000000000000
    -2.5284174650884346    4.8938979039039809    0.0000000000000000
    -1.6147177258128289    3.7091210449217233    3.3536517156771999
   3   5
Cartesian
 -2.1655687599945743  5.6082689558152579  2.8625094219162741
 -0.7614242782333099  5.1933273535251230  0.3739657028151646
  1.3479150018781672  2.8495410715276424  0.1395789844064851
 -1.6968086216601177  7.9520188444620734  3.3312493222164763
  0.6210130282349500  5.1804154039158208  2.3213641810746011
  3.8526063205352181  1.9271688895997570  0.9151109436568375
  4.5557183204008087  2.1615383580775043  1.1494976620655171
  2.7304173622311962  3.5397850706110496  2.3213641810746011
