 V  O 
 1.0000000000000000
     3.7906061574941599    0.0000000000000000    0.0000000000000000
    -2.9761146528307449    3.8598179860851127    0.0000000000000000
    -2.6270516595870315   -2.7793629281344523    3.1037039682970593
   3   5
Cartesian
 -0.4082332024618083  1.7121025289753300  0.7315394841485299
  1.4667667975381917  2.6496025289753300  0.9659144841485299
  2.1698917975381917  3.5871025289753300  2.3721644841485299
 -4.3926082024618083 -2.0378974710246700  1.2002894841485299
 -3.2207332024618083 -0.8660224710246700  3.3096644841485299
 -1.5801082024618083  0.7746025289753300  4.4815394841485299
 -0.6426082024618083 -1.1003974710246700 -0.2059605158514701
 -0.6426082024618083 -0.3972724710246700 -0.4403355158514701
