 V  O                                   
   1.00000000000000     
     5.7312363453891253    0.0284535850650517    0.3887353414871155
    -3.1921189045918403    4.1282685104590415   -0.9259651691228704
    -2.4930622772778803   -8.9250664131894020    2.3769596240456705
   V    O 
     1     1
Direct
 -0.1924267627767051 -0.5517479560429134 -0.5000747668646438
  0.1924267627767051  0.5517479560429134  0.5000747668646438
 
  0.00000000E+00  0.00000000E+00  0.00000000E+00
  0.00000000E+00  0.00000000E+00  0.00000000E+00
