 V  O 
 1.0000000000000000
     5.5454460549393314    0.0000000000000000    0.0000000000000000
    -3.1079859722434104    3.8968368774511442    0.0000000000000000
    -2.4088309979016786   -8.2856595194695579    0.5561473006935373
   1   1
Cartesian
  0.9518145423971216 -0.7881613210092073  1.0983861503467693
 -0.9231854576028784 -3.6006613210092073 -0.5422388496532307
