 V  O 
 1.0000000000000000
     4.6158599999999996    0.0000000000000000    0.0000000000000000
     1.0063176883651166    4.5185996946048990    0.0000000000000000
     1.4626110207807586    2.0965724910454453    4.0163698016719227
   2   3
Cartesian
  3.4955143762881407  3.6825860214174333  1.2112969684862354
  3.9642602256238901  2.5107146893373984  3.3206943883243292
  2.3236574254133449  3.4482238591923937  2.1487980075924953
  3.2611633073968052  4.1513566246790274  0.0394407514524183
  4.6673865013193891  2.7450944554965546  3.3206943883243292
