 V  O 
 1.0000000000000000
     4.3056491679899445    0.0000000000000000    0.0000000000000000
    -0.8762725206585029    3.1884195754107978    0.0000000000000000
    -0.0879445975646236   -1.8930948503622884    3.7207982303839708
   3   5
Cartesian
 -3.8370964751165912 -2.6335876374757454  9.7998522401919850
  3.1941535248834088  2.0539123625242546  2.0654772401919850
  6.9441535248834088  0.4132873625242546  4.1748522401919850
 -0.3214714751165912 -0.0554626374757454  0.4248522401919850
  0.3816535248834088  0.1789123625242546  0.1904772401919850
  1.3191535248834088  2.5226623625242546 -0.7470227598080150
  1.7879035248834088  0.1789123625242546 -0.9813977598080150
  3.8972785248834088  2.5226623625242546 -0.0438977598080150
