 V  O                                   
   1.00000000000000     
     3.1773663149688294    0.3054615979041158   -0.1180311131026780
    -0.7869084952957733    4.6851445975615826    1.7249376232946612
    -4.7844618758454960   -1.0339105604626422    4.1031669142912683
   V    O 
     1     2
Direct
  0.1029707963424877  0.4710391395445557  0.2324946723491145
  0.5775840801356504  0.7105387771061319  0.8877180174251815
  0.8194451235218615  0.3184220833493126  0.3797873102257042
 
  0.00000000E+00  0.00000000E+00  0.00000000E+00
  0.00000000E+00  0.00000000E+00  0.00000000E+00
  0.00000000E+00  0.00000000E+00  0.00000000E+00
