 V  O 
 1.0000000000000000
     5.4675916954134305    0.0000000000000000    0.0000000000000000
    -3.0112242889487129    3.5859687477403268    0.0000000000000000
    -0.3264754177606435    0.2293183546167774    4.1292426452706037
   2   9
Cartesian
 -1.4705653692843264  2.7599162784512785  4.4509849589989390
 -0.0643153692843264  6.5099162784512785  4.4509849589989390
  0.1700596307156736  0.8849162784512785  2.1072349589989390
  0.4044346307156736 -1.6932087215487215  1.8728599589989390
  0.8731846307156736 -1.9275837215487215  1.6384849589989390
  1.1075596307156736  3.6974162784512785  1.6384849589989390
  1.3419346307156736  0.1817912784512785  0.2322349589989390
  1.3419346307156736  3.9317912784512785  3.5134849589989390
  1.3419346307156736  4.1661662784512785  0.2322349589989390
  2.9825596307156736 -1.2244587215487215  1.6384849589989390
  3.6856846307156736  3.6974162784512785  0.9353599589989390
