 V  O                                   
   1.00000000000000     
     3.3949857269831636    0.1503432554473357    0.1938050364156938
    -1.9646691421057287    2.6595223028695369   -0.4880609095538019
     0.2247607558763827   -1.0278894479201046    2.9393152151352515
   V    O 
     1     1
Direct
  0.3590274276939651  0.2274281777783402  0.6392324931269767
  0.6409725723060353  0.7725718222216597  0.3607675068730234
 
  0.00000000E+00  0.00000000E+00  0.00000000E+00
  0.00000000E+00  0.00000000E+00  0.00000000E+00
