 V  O 
 1.0000000000000000
     3.5274452239464629    0.0000000000000000    0.0000000000000000
    -2.1413705402213128    2.4014141579904065    0.0000000000000000
     0.1193164589768575   -0.5185712597252322    3.5576150860478211
   1   1
Cartesian
  2.5105080713510040  2.6992339491325872  2.0131825430239108
 -1.0051169286489960 -0.8163910508674128  1.5444325430239108
