 V  O                                   
   1.00000000000000     
     2.9501041032768835    0.0482599878043243   -0.1327817891011315
    -0.1472578982746479    2.9337618327551276    0.1650277583584397
    -0.3702638037854400    0.0947192234492901    3.7500614948172148
   V    O 
     1     1
Direct
  0.7492801633311330  0.2498312720064765 -0.0007635834764343
  0.2507198366688669  0.7501687279935233  0.0007635834764341
 
  0.00000000E+00  0.00000000E+00  0.00000000E+00
  0.00000000E+00  0.00000000E+00  0.00000000E+00
