 V  O 
 1.0000000000000000
     5.2763739990759753    0.0000000000000000    0.0000000000000000
    -0.4069307678825771    3.9687693575806224    0.0000000000000000
    -0.3782971336338716   -0.0795315619850582    3.7837317354018549
   1   1
Cartesian
  4.0033855487797627  0.7727438977977821  0.2512408677009272
  0.4877605487797632  3.1164938977977821  3.5324908677009272
