 V  O                                   
    1.000000000000000     
    10.2739527424002137    0.7033987543292377    1.2634305179889207
     2.8980644160599720    6.2730856744062269    0.5285442788758800
     4.8587586179787285    2.8612914608514441   18.4127872631381173
   V    O 
     3     5
Direct
 -0.6293914079820518  0.2374194077925849  0.7015928001487004
  0.8116272482923923 -0.0315050594780362  0.9286160604678261
  0.2778534059719657 -0.8992035379557431  0.3846849572095447
  0.2431487946985353  0.4880628265873811  0.3806805589179168
  0.6862101432231340  0.4014891932187802 -0.5595530637097221
  0.0193825927315478 -0.4253696958632960  0.1839980198558233
  0.0738746191549687  0.0652006575892910  0.4811188256860459
  0.5172946039095019  0.1639062081090388 -0.5011381585761332
 
  0.00000000E+00  0.00000000E+00  0.00000000E+00
  0.00000000E+00  0.00000000E+00  0.00000000E+00
  0.00000000E+00  0.00000000E+00  0.00000000E+00
  0.00000000E+00  0.00000000E+00  0.00000000E+00
  0.00000000E+00  0.00000000E+00  0.00000000E+00
  0.00000000E+00  0.00000000E+00  0.00000000E+00
  0.00000000E+00  0.00000000E+00  0.00000000E+00
  0.00000000E+00  0.00000000E+00  0.00000000E+00
