 V  O                                   
    1.000000000000000     
     7.0283084585615239   -0.7735968592845310    1.1610645882615007
    -4.2360910798141633    9.4586487258300451   -2.8100302178834786
    -2.1592756418036507    0.5152553065671485   10.2728601585972186
   V    O 
     3     5
Direct
  0.3505324782611265  0.7268425281981000  0.5906207421203029
  0.0032407163923171  0.7553409458435486 -0.7955258130172176
  0.9641520801162163  0.6103267674599110  0.8033814383537646
  0.4857339125631749  0.6666222180796452  0.9340770875774698
  0.6354035275914247 -0.6409108511974272  0.1111392105452983
  0.3828845818806003  0.1071915474750273  0.2365880918129847
  0.5644018438438126  0.7106502071061395  0.2638088815436566
  0.6136308593513354  0.0639366370350556 -0.1440996389362550
 
  0.00000000E+00  0.00000000E+00  0.00000000E+00
  0.00000000E+00  0.00000000E+00  0.00000000E+00
  0.00000000E+00  0.00000000E+00  0.00000000E+00
  0.00000000E+00  0.00000000E+00  0.00000000E+00
  0.00000000E+00  0.00000000E+00  0.00000000E+00
  0.00000000E+00  0.00000000E+00  0.00000000E+00
  0.00000000E+00  0.00000000E+00  0.00000000E+00
  0.00000000E+00  0.00000000E+00  0.00000000E+00
