 V  O 
 1.0000000000000000
     5.0407799999999998    0.0000000000000000    0.0000000000000000
    -2.2734957335895101    5.7583382984460281    0.0000000000000000
    -2.3530396304017014    1.3968907547264349    6.3176021056662659
   3   5
Cartesian
 -0.9647868731605872  4.9838828762537224  3.5982534553032783
 -0.4960133704263205  2.8745218961813572  0.3170172736623332
  0.9102285050224587  4.5150794049843759  5.4732545842439695
 -0.7304061027773514  5.2182292992362926  5.9420206604844061
 -0.2616098660581940  2.1713560445935749  1.0201032120019320
  0.6758724728130850  1.4682629383533148  1.0201032120019320
  0.6758610176850079  4.5151141034557494  1.4888692882423689
  4.2007951061350610  1.4775649259974817  0.0931214550375208
