 V  O 
 1.0000000000000000
     3.8034273801604939    0.0000000000000000    0.0000000000000000
    -2.7961910106656713    3.3469482212856057    0.0000000000000000
    -0.8919676325024383   -1.2526943487311943    3.3110393868640746
   3   5
Cartesian
 -1.4951000065038080 -1.4724043137227945 -0.2194803065679629
 -0.3232250065038080  1.1057206862772055  1.1867696934320371
  2.0205249934961920  2.5119706862772055  1.6555196934320371
 -0.7919750065038080  2.7463456862772055  1.1867696934320371
 -0.5576000065038080  2.5119706862772055  1.8898946934320371
 -0.5576000065038080  3.2150956862772055  3.0617696934320371
  0.8486499934961920 -1.0036543137227945  0.7180196934320371
  1.3173999934961920 -1.2380293137227945  3.7648946934320371
