 V  O                                   
    1.000000000000000     
     4.8991400000000001    0.0000000000000000    0.0000000000000000
    -0.2101189183110665    4.8217839945157008    0.0000000000000000
     1.1652235815012737    1.0877411731874256    3.8598640220694542
   V    O 
     3     5
Direct
  0.4358900000000006  0.7152000000000029  0.7580600000000004
  0.6624399999999966  0.5044100000000000  0.9686900000000023
  0.4365600000000001  0.6255000000000024  0.9402299999999997
  0.1744300000000010  0.0908200000000008  0.9402299999999997
  0.3963699999999974  0.1093699999999984  0.2115799999999979
  0.5302399999999992  0.8945999999999970  0.3937400000000011
  0.6843900000000005  0.5742300000000000  0.0901300000000020
  0.6796999999999969  0.4858600000000024  0.6973399999999970
 
  0.00000000E+00  0.00000000E+00  0.00000000E+00
  0.00000000E+00  0.00000000E+00  0.00000000E+00
  0.00000000E+00  0.00000000E+00  0.00000000E+00
  0.00000000E+00  0.00000000E+00  0.00000000E+00
  0.00000000E+00  0.00000000E+00  0.00000000E+00
  0.00000000E+00  0.00000000E+00  0.00000000E+00
  0.00000000E+00  0.00000000E+00  0.00000000E+00
  0.00000000E+00  0.00000000E+00  0.00000000E+00
