 V  O 
 1.0000000000000000
     4.8991400000000001    0.0000000000000000    0.0000000000000000
    -0.2101189183110665    4.8217839945157008    0.0000000000000000
     1.1652235815012737    1.0877411731874256    3.8598640220694542
   3   5
Cartesian
  2.8685184724167803  4.2731129866240884  2.9260085205699702
  4.2681406491791840  3.4858400617285921  3.7390116795384598
  3.1029173430313706  4.0387527718355836  3.6291599494703628
  1.9310521580739315  1.4606413056479290  3.6291599494703628
  2.1654294210783585  0.7575027929031777  0.8166700297894551
  2.8685427422592316  4.7418551710245627  1.5197828600496268
  3.3372874395389465  2.8668511351101333  0.3478895443091199
  4.0404140926734833  3.1012374012859176  2.6916375771499133
