 V  O                                   
   1.00000000000000     
    40.0507926963161793    1.9197573761417634   11.6572207347128440
    -4.2647960599850263   18.5261572405340544    5.0065461474843405
    -2.2092040944214180    9.7052494586039302   14.9813863215494543
   V    O 
     2    10
Direct
  0.2379505486848440 -0.1872195194453289 -0.6591951824156909
 -0.2103725686397457  0.0157170623398703  0.9548571795070189
  0.5340386567157012  0.2350948758015545  0.4920102725697319
 -0.9959712082401641 -0.2306759343382023  0.8742846408836111
 -0.0673495145150318 -0.3400743767742173 -0.1987225569288729
  0.2199162243994726  0.5156260201314818 -0.9310671658690166
  0.7574207714175246  0.3426561525260615  0.1567765735048017
  0.2997249101603023  0.8676305774115644 -0.0567289310674320
  0.1820593103535922 -0.5514382292196401  0.3923563041145343
  0.6609600096529800 -0.6990735698210769  0.5082160068482354
  0.8037393684141176  0.0245220647839168  0.9538452081562644
 -0.4221165084035868  0.0072348766040107 -0.4866323493031852
 
  0.00000000E+00  0.00000000E+00  0.00000000E+00
  0.00000000E+00  0.00000000E+00  0.00000000E+00
  0.00000000E+00  0.00000000E+00  0.00000000E+00
  0.00000000E+00  0.00000000E+00  0.00000000E+00
  0.00000000E+00  0.00000000E+00  0.00000000E+00
  0.00000000E+00  0.00000000E+00  0.00000000E+00
  0.00000000E+00  0.00000000E+00  0.00000000E+00
  0.00000000E+00  0.00000000E+00  0.00000000E+00
  0.00000000E+00  0.00000000E+00  0.00000000E+00
  0.00000000E+00  0.00000000E+00  0.00000000E+00
  0.00000000E+00  0.00000000E+00  0.00000000E+00
  0.00000000E+00  0.00000000E+00  0.00000000E+00
