 V  O                                   
   1.00000000000000     
     3.2518258287255817    0.4682811305591559    0.5588768428754289
    -0.5204087763732346    3.2843668169478328    0.1354743081829866
     0.9956601080547965    1.7115999668541904    2.6676293246533751
   V    O 
     1     1
Direct
  0.3755228077916040  0.6253436969114664  0.7504380663142823
  0.6244771922083960  0.3746563030885334  0.2495619336857176
 
  0.00000000E+00  0.00000000E+00  0.00000000E+00
  0.00000000E+00  0.00000000E+00  0.00000000E+00
