 V  O 
 1.0000000000000000
     5.3957853696991487    0.0000000000000000    0.0000000000000000
    -1.4844309910334708    4.1008793199695326    0.0000000000000000
     0.9083664236250398    1.7356345324905247    2.6489096187157197
   1   1
Cartesian
  0.6520479011453588  2.0979444262300291 -0.7849201906421399
  4.1676729011453588  3.7385694262300291  3.4338298093578601
