 V  O 
 1.0000000000000000
     7.6322366546471203    0.0000000000000000    0.0000000000000000
    -3.0035646544432324    3.5453513962411836    0.0000000000000000
    -1.5969854574080549   -0.8722434025588796    3.1649107579298343
   2   2
Cartesian
  1.6916245213979169  0.9849914968411522 -0.9370758710350824
  2.8634995213979169  0.0474914968411522  0.2347991289649176
  0.0509995213979169  2.6256164968411522  1.8754241289649176
  1.4572495213979169  1.6881164968411522  5.1566741289649176
