 V  O                                   
    1.000000000000000     
    23.0846603414639588    5.1804705249347416    4.6688045528717863
     5.4720669119504288    9.5111714672208940   -0.1053481164055277
     2.0143829610792228   -0.8472584564546396    9.5147740356932129
   V    O 
     3     6
Direct
  0.4828236969637487  0.4581026669292989 -0.2391872644643304
 -0.0124428284584147  0.8721673800850430  0.9188028849417497
  0.3962724964919394 -0.4628716912918185  0.4785752752336526
 -0.5582964863585634  0.1081484149919551 -0.0079330807343258
  0.0428223616162077  0.1925909195045550  0.6559110582083624
  0.2712150855746802  0.4002549069431607  0.6478464090269872
 -0.5786292028409874  0.3265443007476812  0.3072405027109326
  0.8878288871887920  0.4372014533279610  0.1386622956240349
  0.5684059898225976  0.1678616487621568  0.6000819194529370
 
  0.00000000E+00  0.00000000E+00  0.00000000E+00
  0.00000000E+00  0.00000000E+00  0.00000000E+00
  0.00000000E+00  0.00000000E+00  0.00000000E+00
  0.00000000E+00  0.00000000E+00  0.00000000E+00
  0.00000000E+00  0.00000000E+00  0.00000000E+00
  0.00000000E+00  0.00000000E+00  0.00000000E+00
  0.00000000E+00  0.00000000E+00  0.00000000E+00
  0.00000000E+00  0.00000000E+00  0.00000000E+00
  0.00000000E+00  0.00000000E+00  0.00000000E+00
