 V  O                                   
   1.00000000000000     
     3.5711134311440511    0.2379969847083284    0.0445101230799638
    -0.7898922385740792    2.5427839618259385   -0.2419104947033880
    -1.0532257788517707   -0.3477799184033127    3.4364106456186327
   V    O 
     2     1
Direct
  0.4244513210498251  0.4005275970355367  0.4641384688178573
 -0.0276701198602235  0.7113316249029069  0.1128144212544440
  0.1032187988104055 -0.6118592219384509 -0.0769528900723013
 
  0.00000000E+00  0.00000000E+00  0.00000000E+00
  0.00000000E+00  0.00000000E+00  0.00000000E+00
  0.00000000E+00  0.00000000E+00  0.00000000E+00
