 V  O                                   
   1.00000000000000     
     7.8688191432211205    0.0087101874740025   -4.6546623019309461
    -3.9714989068281983    6.0993650069288918    2.3527686048381047
    -4.0493663652771863    1.9462891138294443   12.3399960485834299
   V    O 
     1     2
Direct
  0.2478415430493450  0.8558441895058766  0.0786608694790005
 -0.2059353636348646 -0.4995012046281649 -0.3926759207150086
 -0.5419061794144869  0.1436570151222888  0.8140050512360123
 
  0.00000000E+00  0.00000000E+00  0.00000000E+00
  0.00000000E+00  0.00000000E+00  0.00000000E+00
  0.00000000E+00  0.00000000E+00  0.00000000E+00
