 V  O 
 1.0000000000000000
     5.1209800000000003    0.0000000000000000    0.0000000000000000
    -2.5914158955253099    6.1326503073727228    0.0000000000000000
    -0.1098598871363794    1.9575557361105962    4.2729860886877322
   1   2
Cartesian
 -0.7248806523914874  5.4076761986608783  0.3635029265646654
  0.8192552010461877  5.4513738196295396  1.1208469809236790
  1.0536268675627074  5.4513340426393260  0.6521004069946348
