 V  O 
 1.0000000000000000
     4.3740699999999997    0.0000000000000000    0.0000000000000000
    -0.4807854004195738    3.5649153278645191    0.0000000000000000
    -2.9667249518877816   -2.0119517346547280    4.0127282115496277
   2   4
Cartesian
  0.5804622546605097  2.1045912282994701  0.7173152950966114
  0.5793602116831771  3.4134517116070153  0.2201783969677281
 -1.9976327778805558  1.1671078343951315  3.0610294616164024
 -1.7632723109772988  0.9327315153002290  2.5923026792252908
  1.7523221794334423 -0.0047527600830716  2.8266861340619043
 -1.2263722735609148  0.6106765779751190  2.6206726676809460
