 V  O                                   
    1.000000000000000     
     8.0439250822696433    0.0000000000000000    0.0000000000000000
    -5.7882098446613472    8.8590324000790215    0.0000000000000000
     0.1173817240278973    2.6311789721808814    3.9065119377365707
   V    O 
     3     5
Direct
  0.5768468061166345  0.5064776978760506  0.5449969826796064
  0.6767927556723947  0.6036649655107382  0.4850010057734622
  0.9243945040918007  0.8963172844744705  0.9450372136182139
  0.1183250524784967  0.1895503614976093  0.3650090519611879
  0.0675963583579531  0.0907273197734355  0.9649688210225804
  0.4693557608082131  0.5081134719655296  0.0050331905243510
  0.5970420761169208  0.6203935684837063  0.7849808903041620
  0.5696466863575935  0.5847553304184601  0.9049728441164362
 
  0.00000000E+00  0.00000000E+00  0.00000000E+00
  0.00000000E+00  0.00000000E+00  0.00000000E+00
  0.00000000E+00  0.00000000E+00  0.00000000E+00
  0.00000000E+00  0.00000000E+00  0.00000000E+00
  0.00000000E+00  0.00000000E+00  0.00000000E+00
  0.00000000E+00  0.00000000E+00  0.00000000E+00
  0.00000000E+00  0.00000000E+00  0.00000000E+00
  0.00000000E+00  0.00000000E+00  0.00000000E+00
