 V  O                                   
    1.000000000000000     
    19.7869338552647278    3.3032698212052218   -1.5585285849688253
    -3.9011816043221028    7.5727327730637235    6.2726544747641499
   -20.4462270209390518   -2.3124394221398012   10.4170467422842616
   V    O 
     3     5
Direct
  0.4397658803052095 -0.1290729452765850  0.7264962433051783
  0.3655809026080083  0.6998967445954086  0.0240839335104966
 -0.4914994013698756 -0.2220209073501256 -0.3426043608596753
  0.5678307832153371  0.5408654784670026  0.4809787591356003
  0.5966642524816662  0.5623314005151244  0.6705111292254944
  0.4108684442838195  0.7783680427636055  0.0096932581564658
  0.0843167476696071 -0.0458124643567020 -0.0677387184644937
  0.0264823908062246  0.8154346506422754  0.4985897559909443
 
  0.00000000E+00  0.00000000E+00  0.00000000E+00
  0.00000000E+00  0.00000000E+00  0.00000000E+00
  0.00000000E+00  0.00000000E+00  0.00000000E+00
  0.00000000E+00  0.00000000E+00  0.00000000E+00
  0.00000000E+00  0.00000000E+00  0.00000000E+00
  0.00000000E+00  0.00000000E+00  0.00000000E+00
  0.00000000E+00  0.00000000E+00  0.00000000E+00
  0.00000000E+00  0.00000000E+00  0.00000000E+00
