 V  O 
 1.0000000000000000
     7.0938400000000001    0.0000000000000000    0.0000000000000000
    -5.0298920169042347    8.4230088211269862    0.0000000000000000
    -3.8158253562553037   -4.6683730989397993    5.2815235151000026
   3   5
Cartesian
  0.1534908381031758 -3.7183593166897575  4.3985584138455840
 -0.6122977427911320  5.1878836655442990  0.1798358756891551
  1.0283702533445265  1.6722040136941068  0.1798358756891551
 -2.9560214973177343  2.3753391804917858  1.5860943268196819
 -1.0810329880065654  1.4378503804906795  3.4610879899153337
 -2.4840213798029760  7.0436964430122408  0.0545581379109830
 -6.0654749989198224  2.8440540935878289  4.8673464410458598
  1.7315464580742859  2.8441166137381630  1.1173062996194054
