 V  O 
 1.0000000000000000
     3.6994130517543233    0.0000000000000000    0.0000000000000000
     1.4017339276976459    3.8855459952917903    0.0000000000000000
     1.5150578342964840    1.9700421308671714    3.7321132583731105
   2   5
Cartesian
  4.3795309783027978  2.2246690630794808  1.2633780577579845
  5.5514059783027978  4.8027940630794808  1.4977530577579845
  0.1607809783027978  1.2871690630794808  3.8415030577579845
  2.2701559783027978  2.9277940630794808  3.3727530577579845
  2.7389059783027978  2.4590440630794808  2.9040030577579845
  3.9107809783027978  3.3965440630794808 -0.1428719422420155
  4.1451559783027978  3.3965440630794808  0.3258780577579845
