 V  O 
 1.0000000000000000
     6.1567083625366026    0.0000000000000000    0.0000000000000000
    -1.1764358774540118    7.1548644760407480    0.0000000000000000
    -0.1117110454998273    0.9299174158189939    4.1549288067553309
   2  11
Cartesian
  5.8056749505606122  2.5640255613144856  2.4200124803007421
  6.0400499505606122  5.1421505613144856  2.6543874803007421
 -1.6943250494393878  4.2046505613144856  2.8887624803007421
 -1.6943250494393878  4.4390255613144856  2.4200124803007421
  0.8837999505606122  2.7984005613144856  1.4825124803007421
  1.1181749505606122  3.2671505613144856  1.2481374803007421
  1.1181749505606122  6.7827755613144856  2.4200124803007421
  1.3525499505606122  1.6265255613144856  2.6543874803007421
  2.0556749505606122  4.2046505613144856  3.3575124803007421
  2.7587999505606122  2.0952755613144856  2.6543874803007421
  3.2275499505606122  6.0796505613144856  1.7168874803007421
  4.6337999505606122  2.7984005613144856 -0.1581125196992579
  6.0400499505606122  6.5484005613144856  1.2481374803007421
