 V  O 
 1.0000000000000000
     4.6290465049954035    0.0000000000000000    0.0000000000000000
    -0.5009735993381714    4.1181116282167070    0.0000000000000000
     0.3308801640024939    2.6133929192053347    3.1595524037301712
   2  11
Cartesian
  0.4626496117529397  2.3561368890956356 -1.2146949519810679
  3.2751496117529397  3.2936368890956356  2.7696800480189321
  0.4626496117529397  2.1217618890956356  2.5353050480189321
  0.4626496117529397  2.5905118890956356  3.0040550480189321
  1.4001496117529397  4.2311368890956356  2.3009300480189321
  2.1032746117529397  3.9967618890956356  2.0665550480189321
  2.1032746117529397  5.4030118890956356 -1.6834449519810679
  2.3376496117529397  2.5905118890956356 -1.9178199519810679
  2.8063996117529397  3.2936368890956356  0.1915550480189321
  3.0407746117529397  4.2311368890956356  2.3009300480189321
  3.2751496117529397  1.4186368890956356  3.2384300480189321
  3.5095246117529397  3.7623868890956356  4.6446800480189321
  3.7438996117529397  4.4655118890956356  2.3009300480189321
