 V  O                                   
    1.000000000000000     
    22.8889954594360603   -1.7141381026492295   -3.3093273867545365
    -8.8701846730041289    8.1123933395054380    0.2575676515043036
    -7.1955913554798947   -0.4771666834165390    7.3969746371239129
   V    O 
     3     5
Direct
  0.3141049608156458  0.7897120701058071  0.7111509540303039
  0.7448313146250699  0.3183442034418071  0.3846269967784733
  0.5454834778086002  0.6918360956459841  0.0808351031482952
  0.2363667145095810 -0.7628041523997422  0.2532820430946128
 -0.0251112138534504  0.0277775002506139  0.6455397772792495
  0.1724907784267745 -0.0148248750079467  0.4242052976611150
  0.2044355650122267 -0.8931219922966971  0.1745829651783646
  0.8074084026555581  0.8430711502601779  0.3257668628295887
 
  0.00000000E+00  0.00000000E+00  0.00000000E+00
  0.00000000E+00  0.00000000E+00  0.00000000E+00
  0.00000000E+00  0.00000000E+00  0.00000000E+00
  0.00000000E+00  0.00000000E+00  0.00000000E+00
  0.00000000E+00  0.00000000E+00  0.00000000E+00
  0.00000000E+00  0.00000000E+00  0.00000000E+00
  0.00000000E+00  0.00000000E+00  0.00000000E+00
  0.00000000E+00  0.00000000E+00  0.00000000E+00
