 V  O 
 1.0000000000000000
     6.9817600000000004    0.0000000000000000    0.0000000000000000
    -2.3476098336542335    4.7808690020256712    0.0000000000000000
    -1.4469925102428356    0.0556205497546187    5.1437478404220132
   3   5
Cartesian
 -0.6622468114687029  3.7952032078553253  3.7144546280039488
  3.3628489196770075  1.8645822485334331  2.5551053022512309
  2.1502377239643873  3.3264321453077703  0.4332064431203420
 -1.1717586476673814  0.8039195295917899  4.8738039537566662
 -0.7030526696216507  0.5695613311124916  4.8738039537566662
  2.3845934970475264  2.3889586112752412  3.9488037796135753
  2.8533580821566220  2.6233165980787931  3.7144546280039488
  3.0877657837045205  4.0295567202254148  1.6050550761252849
