 V  O 
 1.0000000000000000
     7.2286494182599128    0.0000000000000000    0.0000000000000000
    -2.0737685998993669    3.3622745101063658    0.0000000000000000
    -0.6188149441927991   -0.6604167738341143    3.9810435552433612
   3   1
Cartesian
  0.8617829370838734  0.9993663681361262  1.8147405276216801
  2.0336579370838734 -0.4068836318638738  0.4084905276216801
  2.5024079370838734  3.3431163681361262  2.7522405276216801
  3.6742829370838734  1.4681163681361262  2.9866155276216801
