 V  O 
 1.0000000000000000
     6.9593825228842254    0.0000000000000000    0.0000000000000000
    -0.3614240728861606    6.6483752130682099    0.0000000000000000
    -0.3558935122585227    1.8887587529909475    4.4156181238639354
   2  12
Cartesian
  3.7739342545840575  4.2518259116010073  0.9354876333605393
  4.7114342545840575  4.4862009116010073  3.5136126333605393
  0.0239342545840575  3.7830759116010073  3.2792376333605393
  1.6645592545840575  3.7830759116010073 -1.8770123666394607
  1.8989342545840575  5.8924509116010073  0.7011126333605393
  2.1333092545840575  5.6580759116010073  3.9823626333605393
  2.3676842545840575  5.1893259116010073  4.4511126333605393
  3.0708092545840575  3.0799509116010073  4.9198626333605393
  3.3051842545840575  4.2518259116010073  1.4042376333605393
  3.5395592545840575  3.7830759116010073  0.2323626333605393
  3.5395592545840575  3.7830759116010073  2.1073626333605393
  4.4770592545840575  1.4393259116010073  1.1698626333605393
  4.4770592545840575  4.7205759116010073  3.9823626333605393
  4.7114342545840575  5.6580759116010073  2.1073626333605393
