 V  O                                   
   1.00000000000000     
     4.5662823654485569   -0.8963698243314144   -0.0969562478623297
    -4.5201381497936906    8.8634661096409033   -2.0999403581817897
     1.7237889696209943    2.4507116147151051    1.6820187959482129
   V    O 
     1     4
Direct
  0.2156552774141109  0.8447135250905429 -0.1479557538707835
  0.0756105208535615  0.7442911100067774  0.5043574146470605
  0.6485116519975016  0.1114104978018865  0.4073676626606693
 -0.0105948806168030  0.4689696858409068  0.2738895763713309
  0.5708174303516294  0.3306151812598862  0.4623511001917191
 
  0.00000000E+00  0.00000000E+00  0.00000000E+00
  0.00000000E+00  0.00000000E+00  0.00000000E+00
  0.00000000E+00  0.00000000E+00  0.00000000E+00
  0.00000000E+00  0.00000000E+00  0.00000000E+00
  0.00000000E+00  0.00000000E+00  0.00000000E+00
