 V  O                                   
    1.000000000000000     
    52.9648414072946210   -3.3531490729662581    0.8928047506526039
   -55.6829497519799901   51.0239394406148250   10.3380433436349506
    -5.8987217960313743   -3.4945666052906148    7.1594176708372075
   V    O 
     3     6
Direct
  0.0174504765723258  0.3902513087477475  0.2417526162297817
  0.2241478800695280  0.4286473650942574  0.5361373343573078
  0.6558872911974811  0.6706314607414157  0.0600011790808139
  0.3191444876172321  0.6257589393624274  0.8855166322590822
  0.2338985156288755  0.3105441940399183  0.7820473291147070
 -0.4690350791243083  0.5264366338486910 -0.8754192495805833
 -0.6014681457304989 -0.5854653811476065  0.0963643349425087
 -0.3661911696678396 -0.0958227046011764 -0.8751557141763792
  0.4861657434372086  0.2290181839143181  0.6487555377727524
 
  0.00000000E+00  0.00000000E+00  0.00000000E+00
  0.00000000E+00  0.00000000E+00  0.00000000E+00
  0.00000000E+00  0.00000000E+00  0.00000000E+00
  0.00000000E+00  0.00000000E+00  0.00000000E+00
  0.00000000E+00  0.00000000E+00  0.00000000E+00
  0.00000000E+00  0.00000000E+00  0.00000000E+00
  0.00000000E+00  0.00000000E+00  0.00000000E+00
  0.00000000E+00  0.00000000E+00  0.00000000E+00
  0.00000000E+00  0.00000000E+00  0.00000000E+00
