 V  O 
 1.0000000000000000
     6.0329438117022320    0.0000000000000000    0.0000000000000000
    -1.6631258945434604    5.5386072800523616    0.0000000000000000
    -1.7849617910803730    0.1309467450290214    3.7190170493761978
   3   6
Cartesian
  1.4226363963725337  1.7149853458740250  1.3647168580214322
  2.3601363963725337  3.5899853458740250  1.3647168580214322
  3.0632613963725337  4.0587353458740250  1.5990918580214322
  0.2507613963725337  4.7618603458740250  2.5365918580214322
  0.4851363963725337  4.2931103458740250  2.5365918580214322
  0.4851363963725337  4.2931103458740250  4.8803418580214322
  0.7195113963725337  1.0118603458740250  0.8959668580214322
  1.1882613963725337 -0.1600146541259750  0.1928418580214322
  1.6570113963725337  1.9493603458740250  1.3647168580214322
