 V  O                                   
   1.00000000000000     
     4.4609088659115930   -0.1471206341079007    0.0116806838895179
    -2.1608907829369355    2.2869606225995089   -0.3359990105755581
     2.2453026448747786    0.2563216876032900    2.2150902758695432
   V    O 
     1     1
Direct
  0.7499500456302065 -0.0013211317169075  0.5001035704419650
  0.2500499543697932  0.0013211317169075  0.4998964295580349
 
  0.00000000E+00  0.00000000E+00  0.00000000E+00
  0.00000000E+00  0.00000000E+00  0.00000000E+00
