 V  O 
 1.0000000000000000
     4.1044722416910684    0.0000000000000000    0.0000000000000000
    -2.0003178461833317    4.3435282136030233    0.0000000000000000
     2.0964387560663211    1.1113958225333480    2.7413915802544420
   1   1
Cartesian
  1.9831090757870289  5.3055870180681861  1.4878832901272210
  2.2174840757870289  0.1493370180681861  1.2535082901272210
