 V  O 
 1.0000000000000000
     3.9875738551154134    0.0000000000000000    0.0000000000000000
     0.3398144335660686    4.5833593134351434    0.0000000000000000
     0.3189443631198847    0.7628936805290395    3.9980067239194836
   2  11
Cartesian
  2.4673970951314530  5.0168764969820909  2.7021283619597423
  4.1080220951314530  3.6106264969820909  3.6396283619597423
  0.8267720951314530  1.2668764969820909  2.2333783619597423
  1.0611470951314530  2.2043764969820909  2.2333783619597423
  1.0611470951314530  4.7825014969820909  0.5927533619597423
  1.5298970951314530  1.7356264969820909  2.4677533619597423
  1.5298970951314530  2.6731264969820909  1.9990033619597423
  1.5298970951314530  4.7825014969820909  5.7490033619597423
  2.2330220951314530  2.6731264969820909  0.1240033619597423
  2.7017720951314530  0.5637514969820909  0.3583783619597423
  2.9361470951314530  0.7981264969820909  0.1240033619597423
  4.1080220951314530  1.5012514969820909  3.1708783619597423
  4.1080220951314530  3.1418764969820909  0.5927533619597423
