 V  O 
 1.0000000000000000
     4.1051695772297281    0.0000000000000000    0.0000000000000000
    -0.8864362403848152    4.6418907383933172    0.0000000000000000
    -0.7853325019392471    0.4221831287565471    4.0984021602560157
   3   6
Cartesian
 -0.1114245825471674  0.8132869335749326  6.5283677467946752
  0.3573254174528326  1.5164119335749326  1.1377427467946752
  0.5917004174528326  0.8132869335749326  1.1377427467946752
 -0.1114245825471674  1.5164119335749326  1.6064927467946752
  0.8260754174528326  2.2195369335749326  4.1846177467946752
  1.7635754174528326  4.5632869335749326  0.6689927467946752
  1.9979504174528326  4.0945369335749326  0.6689927467946752
  2.7010754174528326  6.9070369335749326 -0.9716322532053248
  2.9354504174528326  0.3445369335749326  3.4814927467946752
