 V  O                                   
   1.00000000000000     
     6.2388062526555981   -1.3422562016941706   -0.5276529878013062
    -1.5747556110348706    4.1503069813337481    0.7915593052434583
    -0.3756349835656050    4.8488164920532313    4.3988133604505109
   V    O 
     2     4
Direct
  0.2531873390987503 -0.3308195444710471  0.0423342724284500
 -0.4109996612239022  0.0670865621077355  0.2666798447203107
  0.2746997750860642  0.3149611350273833  0.5127336885786383
  0.4161781469395338  0.3147755696382698  0.2082507941272491
  0.5580391494977487 -0.5450153252028563 -0.2052203015833908
 -0.0911047493981952  0.1790016029005042  0.1752217017287502
 
  0.00000000E+00  0.00000000E+00  0.00000000E+00
  0.00000000E+00  0.00000000E+00  0.00000000E+00
  0.00000000E+00  0.00000000E+00  0.00000000E+00
  0.00000000E+00  0.00000000E+00  0.00000000E+00
  0.00000000E+00  0.00000000E+00  0.00000000E+00
  0.00000000E+00  0.00000000E+00  0.00000000E+00
