 V  O 
 1.0000000000000000
     4.2649454443819899    0.0000000000000000    0.0000000000000000
    -0.9649544285512357    3.1627102096371931    0.0000000000000000
    -1.1809997920935507   -1.8050219485855536    3.6536851685506382
   1   2
Cartesian
  2.9344956118686021 -0.0242808694741807  4.1705925842753189
  0.1219956118686021 -0.0242808694741807  1.1237175842753189
  0.1219956118686021  2.0850941305258193  0.1862175842753189
