 V  O                                   
    1.000000000000000     
    34.0348288698154491    4.4160188922764325    0.4530850820273167
    -6.5028593338436709   11.0929882868820684   -1.9906032506745479
    -7.0510825053384583   -8.0474416154228212   25.4328966429354111
   V    O 
     3     5
Direct
  0.4928972571306253  0.0485142668666160  0.0273681261873402
  0.8677601336284038 -0.0113776325797150  0.2579956452347705
 -0.2496981286258357 -0.0187720554043544 -0.1545494854597349
 -0.0103420281950735  0.9985717706098055  0.0546636074724507
  0.1846251792677824 -0.2716686898373082 -0.5757684809725268
 -0.1821030001746244  0.2453039081224393  0.5514373871394653
  0.9668797183206124  0.0356579200493421 -0.9989850762114849
  0.9299808686481104  0.9737705121731673  0.8378382766097080
 
  0.00000000E+00  0.00000000E+00  0.00000000E+00
  0.00000000E+00  0.00000000E+00  0.00000000E+00
  0.00000000E+00  0.00000000E+00  0.00000000E+00
  0.00000000E+00  0.00000000E+00  0.00000000E+00
  0.00000000E+00  0.00000000E+00  0.00000000E+00
  0.00000000E+00  0.00000000E+00  0.00000000E+00
  0.00000000E+00  0.00000000E+00  0.00000000E+00
  0.00000000E+00  0.00000000E+00  0.00000000E+00
