 V  O                                   
   1.00000000000000     
    15.0929416592999655    0.9096186660052076   -1.2237020527000788
    -2.6093162385916226   19.6130100555559324    3.3777798135788673
     0.8318829805376798    3.4019973760491222    8.7365116219821672
   V    O 
     2    11
Direct
 -0.9887270561449705  0.5833231952619650  0.4727839924305549
 -0.4962392366776125 -0.3003635620426899  0.8781700104008763
  0.0662735292453676  0.1566024476013534  0.8197708627560721
  0.2219779362995093  0.9359525943426698  0.8512330471770505
  0.6530396918742624  0.1957181287420044  0.2189096947269634
 -0.8462461366628410 -0.5193193705467714  0.8320716271626577
  0.3624726409991623  0.6682586889408940 -0.0107378393664882
  0.4130722884251123  0.8396212773024250  0.3162946411851493
  0.3634077332417695  0.9785172781787423  0.0055787384344264
 -0.3643038495114906 -0.1783781766539405 -0.9848409208478857
  0.0503791517686347 -0.4023664803734557  0.4620959574513883
  0.1237450143229355  0.4171766788101951  0.1979083497424367
  0.9411682928201595  0.1252573004366170  0.4407618387467907
 
  0.00000000E+00  0.00000000E+00  0.00000000E+00
  0.00000000E+00  0.00000000E+00  0.00000000E+00
  0.00000000E+00  0.00000000E+00  0.00000000E+00
  0.00000000E+00  0.00000000E+00  0.00000000E+00
  0.00000000E+00  0.00000000E+00  0.00000000E+00
  0.00000000E+00  0.00000000E+00  0.00000000E+00
  0.00000000E+00  0.00000000E+00  0.00000000E+00
  0.00000000E+00  0.00000000E+00  0.00000000E+00
  0.00000000E+00  0.00000000E+00  0.00000000E+00
  0.00000000E+00  0.00000000E+00  0.00000000E+00
  0.00000000E+00  0.00000000E+00  0.00000000E+00
  0.00000000E+00  0.00000000E+00  0.00000000E+00
  0.00000000E+00  0.00000000E+00  0.00000000E+00
