 V  O 
 1.0000000000000000
     5.7248099999999997    0.0000000000000000    0.0000000000000000
    -1.2523534750570755    4.3577142613430340    0.0000000000000000
     0.6804793530924959    0.0160380175211776    4.5130688809399766
   2  11
Cartesian
  3.2028797528833390  0.9408990782566290  4.3357052739190358
  1.8418964590925573  1.8463102711567547  2.1064297694899246
  0.6473863539510583  0.6904997801796297  3.8069992545169176
  1.3505261680268390  3.7373553489474070  3.1039082535552787
  1.8192737387560018  4.2060949574990234  2.1664084549176170
  1.2700384011077281  3.1732056606739376  3.1039082535552787
  1.8419224156656919  2.5494415527455740  0.7002026368778375
  3.2028435943546176  3.0502794176015038  3.6325691422685868
  2.7567392183974944  2.0967383203755330  1.9319996572415947
  3.2255324333055420  2.5654837183272576  3.3382719205424909
  4.1403782729055543  0.7065363167413808  4.1013416069318227
  4.1403875882160666  2.3471285818518064  4.1013416069318227
  5.4153520129527326  0.5514928433032933  1.9319996572415947
