 V  O                                   
   1.00000000000000     
    13.7026047837501999    0.5026489089846944   -3.1251640835270869
    -3.5641343981648150   11.3263569881865056   -2.1121242259914950
     2.3417317487523150   -4.5749037295412247   16.6699533528117207
   V    O 
     2    12
Direct
 -0.7618151658902077  0.5233802130852599  0.2351719179496339
  0.1900472157873083 -0.6794722764880030 -0.4410302339737469
  0.4596686068825591 -0.1420669219236764  0.7332035343426311
  0.0053868305054205  0.0769585345810011 -0.9105634132904208
 -0.1739990108396841  0.9320175207548986  0.1914556485759018
  0.1344682149233762  0.1538903063628538 -0.4527609626697235
 -0.4882495976819681 -0.4723368204670852  0.0617056081457878
  0.6249486522093473  0.4242068151180514 -0.4900000985752335
  0.6166805245050360  0.4617635868036696  0.5469971589978450
  0.8632182227054392 -0.6323822918883890 -0.7901880399438443
  0.0295924381577855  0.5062193713906104  0.3453912270441324
  0.4126491267968877  0.2632227581682702 -0.1916714476956456
 -0.6745709756058638 -0.1026754308511590  0.2934532259391087
  0.7619749175445634  0.6872746353537067  0.8688358751535685
 
  0.00000000E+00  0.00000000E+00  0.00000000E+00
  0.00000000E+00  0.00000000E+00  0.00000000E+00
  0.00000000E+00  0.00000000E+00  0.00000000E+00
  0.00000000E+00  0.00000000E+00  0.00000000E+00
  0.00000000E+00  0.00000000E+00  0.00000000E+00
  0.00000000E+00  0.00000000E+00  0.00000000E+00
  0.00000000E+00  0.00000000E+00  0.00000000E+00
  0.00000000E+00  0.00000000E+00  0.00000000E+00
  0.00000000E+00  0.00000000E+00  0.00000000E+00
  0.00000000E+00  0.00000000E+00  0.00000000E+00
  0.00000000E+00  0.00000000E+00  0.00000000E+00
  0.00000000E+00  0.00000000E+00  0.00000000E+00
  0.00000000E+00  0.00000000E+00  0.00000000E+00
  0.00000000E+00  0.00000000E+00  0.00000000E+00
