 V  O                                   
   1.00000000000000     
     2.9289573752005937    0.3976321020228221   -0.5424387982818581
     0.7608796145648292    3.1845367533657440   -0.0428548465612599
    -1.3617473392664921    0.1091976123785337    3.1761154296606802
   V    O 
     1     1
Direct
  0.0623332466053670  0.5978978083935641  0.7761185280682696
  0.9376667533946332  0.4021021916064356  0.2238814719317301
 
  0.00000000E+00  0.00000000E+00  0.00000000E+00
  0.00000000E+00  0.00000000E+00  0.00000000E+00
