 V  O 
 1.0000000000000000
     4.7205978699736750    0.0000000000000000    0.0000000000000000
     0.7304819288861572    3.5128954123101130    0.0000000000000000
    -1.6434765322735072    0.2518443489073623    3.2799883970059649
   1   1
Cartesian
  2.9584891332931624  5.6323698806087386  5.8587441985029827
  0.8491141332931624 -1.8676301193912614 -2.5787558014970173
