 V  O 
 1.0000000000000000
     5.1105999999999998    0.0000000000000000    0.0000000000000000
    -1.2190903680340994    7.2927374503314244    0.0000000000000000
    -0.5721333460097223    0.0341095060770532    5.0100826733277470
   2   6
Cartesian
  1.5132143001409943  5.3626691933268100  3.4425280064969614
  2.5540647084126848  2.7504255763750605  0.5418404411203959
  3.7079335553852637  0.9435996274357442  4.9369855671238954
  0.1069463315396056  3.9563783090175830  0.3956462287126922
  0.5757161058602736  2.3157547270335530  3.6768996739552335
  1.9819607779402957  6.0657970490924171  2.5050413366638735
  2.5817140304265855  5.1623840746227581  4.7026138996656233
 -0.3161211845572548  2.7844884337119762  4.8488081120733266
