 V  O 
 1.0000000000000000
     4.2736350745003957    0.0000000000000000    0.0000000000000000
    -1.0895636670527657    6.7988220641354102    0.0000000000000000
    -0.5811434317225475   -1.9570478971743746    4.2349377223055011
   3   5
Cartesian
 -0.0754891371374589  1.3954964584805181  6.0432501111527506
  0.3932608628625411  3.7392464584805181  3.9338751111527506
  2.9713858628625411  1.1611214584805181  2.5276251111527506
 -0.0754891371374589  2.3329964584805181  3.4651251111527506
  0.6276358628625411  2.0986214584805181  0.8870001111527506
  0.8620108628625411  4.2079964584805181 -1.2223748888472494
  2.7370108628625411  0.4579964584805181  1.5901251111527506
  2.9713858628625411  3.9736214584805181 -0.2848748888472494
