 V  O 
 1.0000000000000000
     5.7333929430797737    0.0000000000000000    0.0000000000000000
    -0.8452505247183552    3.5560196426178292    0.0000000000000000
    -0.4004347357376985    0.3198802646596330    3.6950057584138607
   2   3
Cartesian
  1.9157288413118598  3.1098249536387312  2.3631278792069299
  2.3844788413118598  3.3441999536387312  2.5975028792069299
  1.2126038413118598  1.9379499536387312  2.5975028792069299
  1.6813538413118598  1.7035749536387312  2.8318778792069299
  4.0251038413118598 -0.4058000463612688 -1.1524971207930701
