 V  O                                   
   1.00000000000000     
     3.6380505686258764   -0.8560071838259438   -0.2145418011118552
    -0.6325828414719830    3.1015957450172205   -0.0543771684735614
    -1.4906885744239975   -0.7728197418773495    3.1261272375174745
   V    O 
     1     1
Direct
  0.7576724704416158 -0.0058142573155343  0.5214055203341222
  0.2423275295583846  0.0058142573155343  0.4785944796658780
 
  0.00000000E+00  0.00000000E+00  0.00000000E+00
  0.00000000E+00  0.00000000E+00  0.00000000E+00
