 V  O 
 1.0000000000000000
     4.2591900000000003    0.0000000000000000    0.0000000000000000
     0.2167035461804931    3.7718399935141469    0.0000000000000000
    -1.4598266136951681   -1.3362572989013630    4.9637028018587221
   1   1
Cartesian
  2.8147439755859764 -0.4446752213601648  2.9506234935368987
  0.2013229568993491  2.8802579159729484  2.0130793083218230
