 V  O                                   
    1.000000000000000     
    21.0923826802646772   -3.4059131618989857    1.9105008511529320
    -8.6978682101528886   26.0918178717362323   -4.8042481070689442
    -5.3666734072229723  -13.9097868070557134   12.7979108292277850
   V    O 
     3     6
Direct
  0.1518304311929222  0.0194316101715549  0.3861491447821678
 -0.2680687403222725 -0.0442781251760595  0.7417838382116050
  0.1430785581680629  0.6421919625914351 -0.8558209076886650
  0.1656983235784459  0.8569397473621625  0.1209919166186354
  0.2054805390526669 -0.7479427951466135 -0.7309617296452920
  0.2984922911060236  0.6393609164633706  0.1598640829184406
 -0.5263061700413543  0.7030346270250696 -0.8601997665469352
 -0.3379396813760700 -0.0136623576313173  0.8307549428526837
  0.6677344486415729 -0.5550755856596026  0.7074284784973568
 
  0.00000000E+00  0.00000000E+00  0.00000000E+00
  0.00000000E+00  0.00000000E+00  0.00000000E+00
  0.00000000E+00  0.00000000E+00  0.00000000E+00
  0.00000000E+00  0.00000000E+00  0.00000000E+00
  0.00000000E+00  0.00000000E+00  0.00000000E+00
  0.00000000E+00  0.00000000E+00  0.00000000E+00
  0.00000000E+00  0.00000000E+00  0.00000000E+00
  0.00000000E+00  0.00000000E+00  0.00000000E+00
  0.00000000E+00  0.00000000E+00  0.00000000E+00
