 V  O 
 1.0000000000000000
     4.4108000000000001    0.0000000000000000    0.0000000000000000
    -1.2916784549733167    3.2649043854082076    0.0000000000000000
    -1.6921839798321399   -1.3106642854289026    3.9554341311290475
   3   6
Cartesian
 -1.1355043257965749  0.8208769425212146  2.2120765378339198
  1.2082744432835117  1.2896364848907020  3.3839530078635227
  2.6145062804736328  1.2896041551521840  1.2745990944150243
 -2.3073786970836601  1.9927357540627040  3.6183520344742304
  2.8065520316426613  0.5865049924152941  0.3370820966548174
 -0.1980067652895793  1.7583792332442068  0.5714811232655248
  2.3801580934522946  0.8208617261040158  1.9777170655645238
  2.6145299699839444  0.3521346199081581  2.2120765378339198
  2.8489049345490129 -0.1166403517487523  2.2120765378339198
