 V  O                                   
   1.00000000000000     
    11.1545479886742331   -3.2666981097705188    1.1590147122920631
    -3.9808596274987473   10.2329473027468651   -0.9550898704617078
    -1.4929400993144071   -0.6583444349306912   12.7752073867423377
   V    O 
     2     9
Direct
  0.9222662760169827 -0.2085343601514640  0.3859951186608706
  0.1094356876746327  0.1613863652515331 -0.3148670480406306
  0.0570185891491758  0.5192063351267918 -0.0586942074054094
  0.8213134558141315  0.4461044653019421  0.3639743455798500
 -0.3943424726473966  0.6066426839116044  0.0891116492342234
 -0.5307246423101273  0.8749273938141844 -0.3605263211909975
  0.5208619445483383  0.8880841347204768  0.9760963807882571
  0.5495685948285405  0.9231132977513685  0.7239147655757673
  0.3495844178960714 -0.1847306436373736  0.0137325042598404
  0.8587660144192115  0.3706052497132134  0.8061700062650419
  0.2362421346104363  0.1031950781977223  0.8750928062731790
 
  0.00000000E+00  0.00000000E+00  0.00000000E+00
  0.00000000E+00  0.00000000E+00  0.00000000E+00
  0.00000000E+00  0.00000000E+00  0.00000000E+00
  0.00000000E+00  0.00000000E+00  0.00000000E+00
  0.00000000E+00  0.00000000E+00  0.00000000E+00
  0.00000000E+00  0.00000000E+00  0.00000000E+00
  0.00000000E+00  0.00000000E+00  0.00000000E+00
  0.00000000E+00  0.00000000E+00  0.00000000E+00
  0.00000000E+00  0.00000000E+00  0.00000000E+00
  0.00000000E+00  0.00000000E+00  0.00000000E+00
  0.00000000E+00  0.00000000E+00  0.00000000E+00
