 V  O                                   
    1.000000000000000     
    17.4776045508183806    3.1962212387910043   -0.6245551243095485
    -2.4901639249892478   21.5248906872572547   -4.8817754919648273
    -2.8685608836779402   15.4602546235032108    5.2215430555016837
   V    O 
     3     6
Direct
 -0.8426368199225567 -0.2322982808342585  0.8308258077431903
 -0.4987706578942582  0.3386041971094931 -0.2616900281839883
 -0.7888472069451141  0.0061915214091508 -0.9329934726914798
  0.2982547444746787  0.7501426161434183 -0.2715845474368574
  0.2239179637702060  0.1262453891807787 -0.5154100914696806
  0.7940801564596262  0.0436086399112599  0.3208551691234259
 -0.0430639040823263 -0.0523538068946171  0.3602480897316089
  0.9041782666415377  0.3073887444520300 -0.2995390890211800
 -0.5471125425017943 -0.7875290204772489  0.2692881622049509
 
  0.00000000E+00  0.00000000E+00  0.00000000E+00
  0.00000000E+00  0.00000000E+00  0.00000000E+00
  0.00000000E+00  0.00000000E+00  0.00000000E+00
  0.00000000E+00  0.00000000E+00  0.00000000E+00
  0.00000000E+00  0.00000000E+00  0.00000000E+00
  0.00000000E+00  0.00000000E+00  0.00000000E+00
  0.00000000E+00  0.00000000E+00  0.00000000E+00
  0.00000000E+00  0.00000000E+00  0.00000000E+00
  0.00000000E+00  0.00000000E+00  0.00000000E+00
