 V  O 
 1.0000000000000000
     3.9849986780393909    0.0000000000000000    0.0000000000000000
    -1.1402602745533892    3.1304836130928768    0.0000000000000000
    -1.0832132681731272    2.7927122547900560    2.2822075371102608
   3   6
Cartesian
 -6.0463207656768958 -0.7102770660585334  1.1931871018884639
  2.8599292343231042  5.1490979339414666  3.0681871018884639
  4.2661792343231042  3.0397229339414666  2.8338121018884639
 -2.0619457656768958  0.2272229339414666 -1.3849378981115361
 -1.1244457656768958  2.5709729339414666 -2.0880628981115361
 -0.8900707656768958  3.9772229339414666  3.5369371018884639
  1.2193042343231042  1.6334729339414666 -3.4943128981115361
  1.4536792343231042  1.6334729339414666 -1.6193128981115361
  8.2505542343231042  9.1334729339414658  8.2244371018884639
