 V  O                                   
    1.000000000000000     
     4.4234689397505100    0.0000000000000000    0.0000000000000000
     0.3910262853876290    4.1326359939355974    0.0000000000000000
     2.4695232787274159   -0.3717447453098307    2.6629104059840665
   V    O 
     3     5
Direct
  0.2855153158606072  0.6208789785845852  0.2921314195399987
  0.7758356432723019  0.9374065179847619  0.0280876130266705
  0.8269547320064774  0.0020369297267138  0.1161022151977775
  0.0109146579574286  0.9033199301136179  0.6198539782888872
  0.0190759909265807  0.8545239474942292  0.7078685804600013
  0.9182317757935152  0.3411910784364167  0.4438247739466661
  0.5547508771758061  0.3544401170555176  0.8520584086844423
  0.6087210070072828  0.9862025006041577  0.9400730108555564
 
  0.00000000E+00  0.00000000E+00  0.00000000E+00
  0.00000000E+00  0.00000000E+00  0.00000000E+00
  0.00000000E+00  0.00000000E+00  0.00000000E+00
  0.00000000E+00  0.00000000E+00  0.00000000E+00
  0.00000000E+00  0.00000000E+00  0.00000000E+00
  0.00000000E+00  0.00000000E+00  0.00000000E+00
  0.00000000E+00  0.00000000E+00  0.00000000E+00
  0.00000000E+00  0.00000000E+00  0.00000000E+00
