 V  O                                   
   1.00000000000000     
     6.9211389854780130    0.0533399783643213    1.9134823356807038
     0.0067129842327359    3.1391018111303302   -0.0462192807447099
    -0.7759731726335252    1.6001150043014212    2.5538298567743185
   V    O 
     3     2
Direct
  0.1501116572451226  0.0302812116708472  0.4375492646990865
  0.5076673396570406  0.7018607921226533  0.0973937873210127
  0.8407784416043050  0.3631772672728804  0.7685285515549789
  0.3310041224336754  0.3701405110345489 -0.2352454977721442
  0.6704384390598557  0.0345402178990705  0.4317738941970732
 
  0.00000000E+00  0.00000000E+00  0.00000000E+00
  0.00000000E+00  0.00000000E+00  0.00000000E+00
  0.00000000E+00  0.00000000E+00  0.00000000E+00
  0.00000000E+00  0.00000000E+00  0.00000000E+00
  0.00000000E+00  0.00000000E+00  0.00000000E+00
