 V  O 
 1.0000000000000000
     4.9753701377699029    0.0000000000000000    0.0000000000000000
    -0.9108762746879804    3.6571093208603025    0.0000000000000000
    -0.0045256591577273    0.1396346200259643    3.8696478083822372
   3   5
Cartesian
  2.7331091019620981  2.4550125954431330 -0.2917385958088818
  2.9674841019620981  0.5800125954431330  5.0988864041911182
  3.6706091019620981  3.3925125954431330  1.8176364041911182
 -1.0168908980379019  1.7518875954431330  2.2863864041911182
  0.6237341019620981  0.1112625954431330  1.8176364041911182
  0.8581091019620981  3.1581375954431330  2.0520114041911182
  2.2643591019620981  1.7518875954431330 -0.2917385958088818
  4.1393591019620981  1.9862625954431330  2.9895114041911182
