 V  O                                   
   1.00000000000000     
     9.1337162010936126   -0.3821364676433914    0.0517336799399444
    -4.4298420680903137    5.6146056636409245    0.4880186582739743
    -5.5553268478531317   -4.9354876015978562    9.4385291438320547
   V    O 
     2     6
Direct
  0.0777880274514333 -0.3885354025685541  0.6255409051102839
 -0.2121681522486425  0.4995680168139756  0.0664115787099672
  0.2221794229960082  0.4699573222423269  0.6998529101986414
  0.8103775935033729  0.2591958605292574  0.1199431035858035
 -0.1061638258733783 -0.4987693766133629 -0.5616097969047659
  0.4080399680523459 -0.0543099892919213  0.5073868438864256
  0.1204122399551061  0.8330953589518605  0.6216117969058532
 -0.3204652738362386 -0.1202017900635890 -0.0791273414922058
 
  0.00000000E+00  0.00000000E+00  0.00000000E+00
  0.00000000E+00  0.00000000E+00  0.00000000E+00
  0.00000000E+00  0.00000000E+00  0.00000000E+00
  0.00000000E+00  0.00000000E+00  0.00000000E+00
  0.00000000E+00  0.00000000E+00  0.00000000E+00
  0.00000000E+00  0.00000000E+00  0.00000000E+00
  0.00000000E+00  0.00000000E+00  0.00000000E+00
  0.00000000E+00  0.00000000E+00  0.00000000E+00
