 V  O                                   
    1.000000000000000     
     6.5549448509691590   -0.4414865428788125    0.1707106819614412
    -7.6382804033249734    7.8970953300315694    1.0612371675331149
     1.6405774155503869    2.7213833319743244    7.8829058048335989
   V    O 
     3     5
Direct
  0.2499744311829694  0.6842593646222714  0.3857740202791647
  0.7237285833069658  0.5852664728553012  0.3566337296311461
  0.3543181483945591  0.3427110541260013  0.7592776352558200
  0.9184578457984830  0.1299685681742663  0.8689767342529104
  0.5417597850238545  0.7077476269358663  0.3056410611543571
  0.3066097362834984  0.3401089831133050  0.5174779406180572
  0.9174224879814448  0.6394181926359507  0.5212849326318364
 -0.0122610179717724  0.5705197375370237  0.2849239461767116
 
  0.00000000E+00  0.00000000E+00  0.00000000E+00
  0.00000000E+00  0.00000000E+00  0.00000000E+00
  0.00000000E+00  0.00000000E+00  0.00000000E+00
  0.00000000E+00  0.00000000E+00  0.00000000E+00
  0.00000000E+00  0.00000000E+00  0.00000000E+00
  0.00000000E+00  0.00000000E+00  0.00000000E+00
  0.00000000E+00  0.00000000E+00  0.00000000E+00
  0.00000000E+00  0.00000000E+00  0.00000000E+00
