 V  O 
 1.0000000000000000
     6.0366299999999997    0.0000000000000000    0.0000000000000000
    -6.2618692046994751   11.7511221261306087    0.0000000000000000
     1.5413007974656978    2.9381268166836150    8.4251956750758143
   3   5
Cartesian
 -1.9787232461785831  8.2235296587623932  3.0114176901423484
  0.3650516302045804  7.9891540082661860  2.3083351110572714
  1.5369649382409722  6.8172897466125075  6.9957769768424516
  5.6986051761192744  3.3017258074438138  7.4645548642036701
  0.1306900778449626  9.8640845514856874  2.5426398027811299
  1.0681949662829371  5.4110252424377254  3.9488892129080342
  1.7713166740704320  9.8641322394407176  4.4176671002692531
  2.7088211077723408  7.2860251355396937  3.0114176901423484
