 V  O 
 1.0000000000000000
     3.9949151831187231    0.0000000000000000    0.0000000000000000
     1.3129129484578808    3.7258107409007262    0.0000000000000000
    -0.9275626706266507    3.1778822268397406    2.6330887338840601
   2   5
Cartesian
  1.1521863019035479  4.9585429124416622  0.6134193669420300
  2.3240613019035479  4.0210429124416622  2.4884193669420300
  0.4490613019035479  1.6772929124416622  2.0196693669420300
  0.4490613019035479  1.6772929124416622  2.4884193669420300
  2.5584363019035479  3.7866679124416622  2.7227943669420300
  3.0271863019035479  4.7241679124416622 -1.2615806330579700
  5.3709363019035479  3.3179179124416622  0.1446693669420300
