 V  O                                   
   1.00000000000000     
     9.9999037573467717   -7.4844395648759754    1.1943304908964476
    -9.7040801882373966   43.3137730106420378   -1.1532319346532283
    -8.5699474108796512   34.5661914871086111    4.3935319056816873
   V    O 
     2     8
Direct
 -0.3254586588129998  0.0943220587068647 -0.5432211128052373
  0.6422939360359856  0.4184887619100309  0.9405609363580806
  0.8935364952348388  0.2752122032453426  0.2795155010473223
  0.1063043415121211  0.7275988927327263  0.5132276814898071
  0.1905808435062102  0.5419422397155437  0.3597173128964968
  0.3289291510657343 -0.3041495552680668  0.3130332640180640
  0.5760910284106072  0.6913693471989065  0.9611255263276284
 -0.6537615317050428 -0.9194213396806099  0.6808856493778301
 -0.0586188180802752  0.6274375805929444  0.6926784454616529
  0.3001032128328140 -0.1528001891536754  0.8024767958283479
 
  0.00000000E+00  0.00000000E+00  0.00000000E+00
  0.00000000E+00  0.00000000E+00  0.00000000E+00
  0.00000000E+00  0.00000000E+00  0.00000000E+00
  0.00000000E+00  0.00000000E+00  0.00000000E+00
  0.00000000E+00  0.00000000E+00  0.00000000E+00
  0.00000000E+00  0.00000000E+00  0.00000000E+00
  0.00000000E+00  0.00000000E+00  0.00000000E+00
  0.00000000E+00  0.00000000E+00  0.00000000E+00
  0.00000000E+00  0.00000000E+00  0.00000000E+00
  0.00000000E+00  0.00000000E+00  0.00000000E+00
