 V  O 
 1.0000000000000000
     4.7404400000000004    0.0000000000000000    0.0000000000000000
    -1.8623219788396741    3.4650794097726938    0.0000000000000000
    -2.3228378859318712    0.1449692995572250    3.8325693617031176
   1   2
Cartesian
 -0.1130098649424792  1.4144070672758555  0.2756383884936882
 -1.5192283845823551  2.5862889640907425  3.7912925896775751
  2.4651398291477284  1.4144116834223774  1.6819230643834133
