 V  O                                   
   1.00000000000000     
    18.2082059369475999   11.9263271202830268   14.1751829330687826
     8.1261233055822952   18.2016114192724210   11.3384101123003109
    -0.6302498648072882   -0.1395030515231977    8.8934363859871493
   V    O 
     2     7
Direct
  0.1993451945694821  0.7162959018959618  0.9132444892402203
 -0.6115322755122609 -0.8927517957916171 -0.7278291812956623
 -0.0194711975512658 -0.7149551402889863 -0.2955704189116696
  0.9114268688599948  0.2721614363126722  0.0954427383286352
  0.0716226480080013  0.0527951726412803  0.0299022610726715
  0.9304042861070253  0.4603984369919024  0.4650677502290447
  0.3388336330924135 -0.1540130322109226  0.2955183030003928
  0.3341960215247080  0.4642087663185873  0.3706262166891280
  0.3451748209019162  0.2958602541311148  0.3535978416472436
 
  0.00000000E+00  0.00000000E+00  0.00000000E+00
  0.00000000E+00  0.00000000E+00  0.00000000E+00
  0.00000000E+00  0.00000000E+00  0.00000000E+00
  0.00000000E+00  0.00000000E+00  0.00000000E+00
  0.00000000E+00  0.00000000E+00  0.00000000E+00
  0.00000000E+00  0.00000000E+00  0.00000000E+00
  0.00000000E+00  0.00000000E+00  0.00000000E+00
  0.00000000E+00  0.00000000E+00  0.00000000E+00
  0.00000000E+00  0.00000000E+00  0.00000000E+00
