 V  O                                   
   1.00000000000000     
     6.7607335766484802   -0.2779245818949256    0.6092403067613763
    -3.1212019312714809    3.2906569443693896   -0.0802129497941753
    -1.8925758018177425   -1.6463882829561118    3.4117455228633737
   V    O 
     1     1
Direct
  0.9857123623675700  0.4293607040812246  0.7760303800638204
  0.0142876376324300  0.5706392959187754  0.2239696199361796
 
  0.00000000E+00  0.00000000E+00  0.00000000E+00
  0.00000000E+00  0.00000000E+00  0.00000000E+00
