 V  O 
 1.0000000000000000
     7.1054264431655412    0.0000000000000000    0.0000000000000000
    -3.1461420412903869    3.2643481723615446    0.0000000000000000
    -2.4692604060855285   -2.0588716312352329    4.3894708194619660
   1   1
Cartesian
  0.6278244978948129  3.0636757705631563  3.3666104097309830
  0.8621994978948129 -1.8581992294368437  1.0228604097309830
