 V  O                                   
   1.00000000000000     
     3.6268719214375191    0.0596857929490741    0.1292703353988094
    -0.2980273110539095    3.2234366479151952    0.0203402515397157
    -3.6962733364354046   -1.7295175146342998    2.6430798307742469
   V    O 
     1     1
Direct
  0.2499717658532506  0.5005952575670041 -0.0000041054962977
  0.7500282341467492  0.4994047424329964  0.0000041054962977
 
  0.00000000E+00  0.00000000E+00  0.00000000E+00
  0.00000000E+00  0.00000000E+00  0.00000000E+00
