 V  O 
 1.0000000000000000
     3.4952235264715186    0.0000000000000000    0.0000000000000000
    -0.3613496108214050    3.4307071336763553    0.0000000000000000
    -3.8362042018659990   -1.7045123713157415    4.4338288378378161
   1   1
Cartesian
  0.1175848568920568  0.2771598811803067  5.0294144189189076
 -0.8199151431079432  1.4490348811803067 -0.5955855810810924
