 V  O                                   
    1.000000000000000     
     5.3896178346768755    1.1558322443714286    0.2355857385541606
    -2.4075309113773389    3.9182135616574816   -0.5200718518843813
     0.4478401740842337    2.4667480088452116    4.3053824408629433
   V    O 
     3     6
Direct
  0.7420665431915126  0.8997935942129976 -0.8887618125838763
  0.1526650733721304  0.5792699544794314  0.1315748896510356
  0.5611004694441638  0.3061084784706096  0.5820470209553812
  0.3001752125685203  0.2710786899706967  0.9628875417019167
  0.7764965532295345  0.2947594401720289  0.1847177779585723
  0.5584107868282842  0.9261942590268126  0.8176063666735733
 -0.8756934959968521  0.0075648456248943  0.8815455936039084
  0.3936140098791688  0.5448620088588185  0.3774193175009108
  0.8911648474835450  0.6703687291837096  0.4509633045385855
 
  0.00000000E+00  0.00000000E+00  0.00000000E+00
  0.00000000E+00  0.00000000E+00  0.00000000E+00
  0.00000000E+00  0.00000000E+00  0.00000000E+00
  0.00000000E+00  0.00000000E+00  0.00000000E+00
  0.00000000E+00  0.00000000E+00  0.00000000E+00
  0.00000000E+00  0.00000000E+00  0.00000000E+00
  0.00000000E+00  0.00000000E+00  0.00000000E+00
  0.00000000E+00  0.00000000E+00  0.00000000E+00
  0.00000000E+00  0.00000000E+00  0.00000000E+00
