 V  O 
 1.0000000000000000
     6.1898391008666822    0.0000000000000000    0.0000000000000000
    -1.1958068306763880    4.1029261233548544    0.0000000000000000
    -2.6657275324453047   -1.8905636190398718    5.5171400301810305
   3   6
Cartesian
 -1.6483476311275052  2.4343062521574907  1.6387783484238483
  0.9297773688724948  5.0124312521574907  0.2325283484238483
  3.7422773688724948  3.8405562521574907  5.6231533484238483
 -3.0545976311275052 -1.3156937478425093  2.3419033484238483
  0.2266523688724948 -1.5500687478425093  2.8106533484238483
  0.2266523688724948 -1.5500687478425093  3.2794033484238483
  1.8672773688724948  1.2624312521574907  2.8106533484238483
  3.7422773688724948  2.9030562521574907  2.3419033484238483
  4.4454023688724948 -1.0813187478425093  3.7481533484238483
