 V  O 
 1.0000000000000000
     7.3988261035086467    0.0000000000000000    0.0000000000000000
    -2.9879524030504871    5.3830473059813393    0.0000000000000000
    -1.3847851220183123   -1.8017480073662273    4.2496817946567678
   3   6
Cartesian
  1.6172109558865904  0.4885663159742215  1.2915075639950508
  1.6172109558865904  2.1291913159742215  3.4008825639950508
  1.8515859558865904  0.0198163159742215  0.8227575639950508
 -0.4921640441134096  2.5979413159742215  3.8696325639950508
 -0.0234140441134096 -0.9176836840257785 -0.1147424360049492
  0.9140859558865904  2.5979413159742215  1.2915075639950508
  1.6172109558865904  3.0666913159742215  4.1040075639950508
  2.5547109558865904  3.3010663159742215  0.3540075639950508
  3.9609609558865904  2.8323163159742215  4.1040075639950508
