 V  O 
 1.0000000000000000
     4.4234689397505100    0.0000000000000000    0.0000000000000000
    -0.9113671671293524    3.0158799811375658    0.0000000000000000
     0.4575786411644135   -1.1304114223864192    3.7737732234927610
   2   5
Cartesian
 -0.4928383645357854  2.8512164222327163  4.8333151831749515
  4.8977866354642146  2.8512164222327163  5.0676901831749515
  0.2102866354642146  0.0387164222327163  0.8489401831749515
  0.2102866354642146  0.5074664222327163  0.8489401831749515
  2.0852866354642146  0.0387164222327163  0.3801901831749515
  2.5540366354642146  0.5074664222327163  0.6145651831749515
  4.4290366354642146 -0.1956585777672837  0.6145651831749515
