 V  O                                   
   1.00000000000000     
     4.1822939810112496   -0.1415326391776454   -0.1457674433922915
    -1.8968302776882680    2.2184755354418870    0.4943494275406970
     0.3775604808666628    1.5913693068596431    2.8394891448444817
   V    O 
     1     1
Direct
  0.2056766468396683 -0.0770845518491799  0.0830974968743176
  0.7943233531603314  0.0770845518491801  0.9169025031256821
 
  0.00000000E+00  0.00000000E+00  0.00000000E+00
  0.00000000E+00  0.00000000E+00  0.00000000E+00
