 V  O 
 1.0000000000000000
     3.6756707117486189    0.0000000000000000    0.0000000000000000
    -1.4341763290832970    3.0516468650107296    0.0000000000000000
     0.4487370436390110    1.3961563970046502    3.7790524330159010
   1   1
Cartesian
  1.4623032131521665  1.5207766310076902  3.9989012165079503
  1.2279282131521665  2.9270266310076902 -0.2198487834920497
