 V  O 
 1.0000000000000000
     4.9310200000000002    0.0000000000000000    0.0000000000000000
    -1.2373484726076669    4.9228178557545146    0.0000000000000000
    -2.5221322708568024   -1.4452482654234666    4.7812665565196406
   2   1
Cartesian
  2.1355912603367964 -0.5277849960106200  3.1718922335951296
  2.5388766706708625  2.2856457347135906  1.7656261139915728
  2.0138609537956369  3.4584936467936020  2.2343814871927585
