 V  O                                   
   1.00000000000000     
    19.6999867762146650    1.2435229403667301   11.7619102820996027
    -1.1719571125815471    5.6091992580334429   -2.8589349267675752
     2.4879048604854046   -1.3413522911453510   38.7806913232465718
   V    O 
     3     3
Direct
  0.6819194976930746  0.3712262617544044  0.1014524781468068
  0.1932912792753972 -0.2640678184154411  0.4928195830129151
 -0.9745115117185126  0.8370145414473369 -0.1607472678534237
  0.2484775285760761  0.0162249726152177  0.2732732527404361
 -0.8457340955103115 -0.6663712918447172  0.9178799909735915
  0.6965573016842813  0.7059733344431919 -0.6246780370203281
 
  0.00000000E+00  0.00000000E+00  0.00000000E+00
  0.00000000E+00  0.00000000E+00  0.00000000E+00
  0.00000000E+00  0.00000000E+00  0.00000000E+00
  0.00000000E+00  0.00000000E+00  0.00000000E+00
  0.00000000E+00  0.00000000E+00  0.00000000E+00
  0.00000000E+00  0.00000000E+00  0.00000000E+00
