 V  O                                   
   1.00000000000000     
    17.1357622346156084  -12.4146941904415904  -12.5637393511563857
   -21.6157239797864555   27.8400376252149506   20.7908386921398254
   -11.0476901886958601   13.1819662033746194   15.5855618738122672
   V    O 
     2     4
Direct
  0.0750123311023583  0.8010778874642673  0.0096454913941708
  0.9679388998128698  0.4082724322611216  0.3436871665980581
  0.0719379012793538  0.1393622670384031  0.2165584825221913
 -0.5248478597855675  0.2172595638158276  0.3302979724138193
  0.5157562197388941 -0.9338360564888990 -0.6826294591665028
  0.8942025078521015  0.3678639059092815  0.7824403462382626
 
  0.00000000E+00  0.00000000E+00  0.00000000E+00
  0.00000000E+00  0.00000000E+00  0.00000000E+00
  0.00000000E+00  0.00000000E+00  0.00000000E+00
  0.00000000E+00  0.00000000E+00  0.00000000E+00
  0.00000000E+00  0.00000000E+00  0.00000000E+00
  0.00000000E+00  0.00000000E+00  0.00000000E+00
