 V  O 
 1.0000000000000000
     6.3449200000000001    0.0000000000000000    0.0000000000000000
    -3.1724156178532747    8.7517681829274157    0.0000000000000000
     2.4344756331850266   -0.8924798049590368    2.0875944317967137
   2   4
Cartesian
  1.3972347708528958  4.7890407105723583  0.3406745353249057
  1.3972496798621257  4.7889893448576002  1.2781714427561739
 -0.7469834233992422  7.9608097458306695  0.5532751522590830
  0.8377350322990368  3.8065264862733383  0.1280739183907284
  2.9471787058722287  5.4470725461383873  0.8311965989641795
 -0.9632859705300907  6.4296742881192355  1.0437972158983568
