 V  O                                   
   1.00000000000000     
     6.1174321318028824   -0.1784658871723331   -0.0702583605436524
    -1.2253678722993826    3.4276387015205505    0.0914947435119319
    -1.7096719569619072   -2.2873186789287789    4.3501499790584699
   V    O 
     2     7
Direct
  0.6533299675921134  0.3542272625823729  0.0850178250218080
  0.1093030893437705  0.2166490728247852  0.0226250226470418
 -0.5016485792992099 -0.4212951243783016  0.3260841018595300
  0.3983301366154085  0.2492365918808285  0.7343170985659757
 -0.2224261783948393  0.0791322941311473  0.8564865693716255
  0.1817583792681048 -0.1843325232638389 -0.8393772420889807
  0.2258125589237526  0.4126641180050689  0.7690570916941549
  0.6589424869256085  0.9299415977504454  0.2807349974884276
  0.9965881390252883  0.8637767104675014  0.2650545354404164
 
  0.00000000E+00  0.00000000E+00  0.00000000E+00
  0.00000000E+00  0.00000000E+00  0.00000000E+00
  0.00000000E+00  0.00000000E+00  0.00000000E+00
  0.00000000E+00  0.00000000E+00  0.00000000E+00
  0.00000000E+00  0.00000000E+00  0.00000000E+00
  0.00000000E+00  0.00000000E+00  0.00000000E+00
  0.00000000E+00  0.00000000E+00  0.00000000E+00
  0.00000000E+00  0.00000000E+00  0.00000000E+00
  0.00000000E+00  0.00000000E+00  0.00000000E+00
