 V  O                                   
   1.00000000000000     
     6.3901203770476593    0.0000000000000000   -0.0000000000000000
    -2.9941115535103715    5.3420804554991808   -0.0000000000000000
     0.2364089734504892    1.1412676178530945    2.6618659055379563
   V    O 
     1     1
Direct
  0.6189218111063701  0.6272841274723115  0.6876606885864801
  0.3810781888936298  0.3727158725276886  0.3123393114135200
 
  0.00000000E+00  0.00000000E+00  0.00000000E+00
  0.00000000E+00  0.00000000E+00  0.00000000E+00
