 V  O 
 1.0000000000000000
     6.3901203770476593    0.0000000000000000    0.0000000000000000
    -2.9941115535103715    5.3420804554991808    0.0000000000000000
     0.2364089734504892    1.1412676178530945    2.6618659055379563
   1   1
Cartesian
  2.1677713984938887  4.0619865366761374  2.0340579527689782
  1.4646463984938887  2.4213615366761374  0.6278079527689782
