 V  O                                   
   1.00000000000000     
     3.0189758195560956   -0.3975738647814264    0.3868339544668944
    -1.2063021405604832    2.8398271495205512    0.1023839482812995
    -0.5165630996772806    1.2884092183358740    5.2587844185038879
   V    O 
     2     1
Direct
  0.4098916278131028  0.3225045881020396  0.4263604477628433
  0.9207294292894136  0.3429354100531442  0.9065293610271087
  0.1693889428974794  0.8345600018448166  0.1671201912100441
 
  0.00000000E+00  0.00000000E+00  0.00000000E+00
  0.00000000E+00  0.00000000E+00  0.00000000E+00
  0.00000000E+00  0.00000000E+00  0.00000000E+00
