 V  O 
 1.0000000000000000
     4.5641100000000003    0.0000000000000000    0.0000000000000000
    -1.4065025970484595    3.9924236785937355    0.0000000000000000
    -1.1215278145482310    1.4933421409842000    4.9911012488282980
   2   1
Cartesian
  0.7055488798060235  1.3366359285835410  2.1830577752250093
  2.1117896046798017  2.9772514447601193  4.2924468960173128
  0.2368153239409938  3.9147762894446529  1.0111971130126132
