 V  O                                   
   1.00000000000000     
     3.3207662179354607   -0.4193466223132037   -0.0266279357593323
    -1.3391551368754211    2.8593298751604292    1.0853792847261410
     0.1091690102431744    0.7794265827653295    3.2433620234898051
   V    O 
     1     1
Direct
  0.1242030056710967  0.2506519101958802  0.1244214639510033
  0.8757969943289033  0.7493480898041198  0.8755785360489966
 
  0.00000000E+00  0.00000000E+00  0.00000000E+00
  0.00000000E+00  0.00000000E+00  0.00000000E+00
