 V  O 
 1.0000000000000000
     4.9574080518235695    0.0000000000000000    0.0000000000000000
    -0.5990387995415589    6.6306895750198276    0.0000000000000000
     0.1149299407318424   -0.2058045527579908    4.9471063639300761
   1   1
Cartesian
  1.2991495965069264  2.2749425111309183  0.5985531819650380
  3.1741495965069264  4.1499425111309183  4.3485531819650376
