 V  O 
 1.0000000000000000
     4.5487273889929920    0.0000000000000000    0.0000000000000000
    -0.2320305759163223    2.8734072351670674    0.0000000000000000
     0.6268912080808613    3.7063552690371435    0.2258362188739189
   2   4
Cartesian
  3.6827315105787655  2.1961312521021057  0.3082306094369596
  3.9171065105787655  4.0711312521021057 -1.8011443905630404
 -4.5203934894212345 -1.0851187478978943  6.1676056094369596
  3.2139815105787655  4.5398812521021057 -2.7386443905630404
  3.4483565105787655  4.3055062521021057 -2.5042693905630404
  5.0889815105787655  5.7117562521021057  1.2457306094369596
