 V  O                                   
    1.000000000000000     
    18.3919777859532978  -12.4512875838863533  -11.8013538838982459
   -12.5195561762158718   21.5780486758472456   10.7913161239326900
   -13.9923252971323802   14.7336893853728625   17.9038642035986442
   V    O 
     3     5
Direct
  0.0972370059831593  0.0632169659400162  0.4559308209909061
  0.4419382429441931  0.4118528752089441  0.6702674410173726
  0.7124523371066117  0.8712837303058186  0.2198525858019484
  0.1824014473593665  0.9757209955224138  0.0686828357484082
  0.3134498958405785 -0.9367567572917752  0.1305297435710018
  0.5746566361173115  0.7941616941086274  0.5203206368566176
 -0.7976036251161847  0.0064978688243879  0.1885213774174669
  0.4754680597649613 -0.1859773726184401 -0.2541054414037223
 
  0.00000000E+00  0.00000000E+00  0.00000000E+00
  0.00000000E+00  0.00000000E+00  0.00000000E+00
  0.00000000E+00  0.00000000E+00  0.00000000E+00
  0.00000000E+00  0.00000000E+00  0.00000000E+00
  0.00000000E+00  0.00000000E+00  0.00000000E+00
  0.00000000E+00  0.00000000E+00  0.00000000E+00
  0.00000000E+00  0.00000000E+00  0.00000000E+00
  0.00000000E+00  0.00000000E+00  0.00000000E+00
