 V  O                                   
    1.000000000000000     
     6.9997121423198490   -0.2780893185033772   -0.1420519508593942
     1.8954946453017067    4.0332871860749213    0.3374041293402114
     0.1887971575693047    4.7247450257974544    5.3268634740242380
   V    O 
     3     5
Direct
  0.7277530037194856  0.1735362107305832 -0.8683144213789612
  0.7267716525631204 -0.1165559142398860  0.7749778796795079
 -0.4201132492431776  0.1523804849299672 -0.0720906298963946
 -0.6996275133684359  0.1799889952106998 -0.0832669140981476
 -0.1022439487584648 -0.8048807034977365 -0.0398712925702099
  0.4597503761130422  0.4942507517775749  0.1738423128530533
  0.2599869831888236 -0.0286021470272418  0.7906185371105355
  0.0477226957855991 -0.0501176778839640  0.3241045283006156
 
  0.00000000E+00  0.00000000E+00  0.00000000E+00
  0.00000000E+00  0.00000000E+00  0.00000000E+00
  0.00000000E+00  0.00000000E+00  0.00000000E+00
  0.00000000E+00  0.00000000E+00  0.00000000E+00
  0.00000000E+00  0.00000000E+00  0.00000000E+00
  0.00000000E+00  0.00000000E+00  0.00000000E+00
  0.00000000E+00  0.00000000E+00  0.00000000E+00
  0.00000000E+00  0.00000000E+00  0.00000000E+00
