 V  O 
 1.0000000000000000
     5.3820614599874306    0.0000000000000000    0.0000000000000000
     1.5585537493826187    2.6744564225438716    0.0000000000000000
     0.3145430269305411    2.8128063317195640    3.1435087816894702
   3   5
Cartesian
  5.1510166181502957  1.8354282521317176  1.1908950158447347
  5.1510166181502957  3.2416782521317176  2.1283950158447347
  5.6197666181502957  5.1166782521317176  3.5346450158447347
  0.4635166181502952  1.1323032521317176  1.1908950158447347
  1.8697666181502952  3.9448032521317176  0.4877700158447347
  2.3385166181502952  3.9448032521317176  4.4721450158447347
  2.8072666181502952  2.0698032521317176 -0.6841049841552653
  5.6197666181502957  0.6635532521317176  0.2533950158447347
