 V  O 
 1.0000000000000000
     6.0924500000000004    0.0000000000000000    0.0000000000000000
    -0.9374137403628413    3.6991927948917382    0.0000000000000000
    -1.1794565321539643    2.4999501691332373    4.0765673154640831
   3   7
Cartesian
  0.6125488126564300  0.7871217362233103  0.0945355960456121
  2.2532684040614779  2.8456940297945392  0.3288974510116423
  2.7143789231804649  2.5839343469748415  2.2960857747619898
  4.5880767125310529  1.4120770674099972  0.8898331136195001
  1.3080791026026870  0.7089545026010728  0.4211094036874398
  2.7142750234654263  0.9941187665146993  1.5929594441907451
  0.8318258246565994  5.3182483915222889  3.5601477679410931
  3.8937765878999371  3.1308932991387666  0.0945355960456121
  5.5267711098101016  0.7597814116028854  0.4211094036874398
 -1.2687235084148361  3.7558351271122121  2.5304883954011750
