 V  O 
 1.0000000000000000
    11.7064735237936315    0.0000000000000000    0.0000000000000000
    -1.0288581311464073    4.1330509424769186    0.0000000000000000
     3.6960032479157978    3.0104602279519121    6.7389897643579451
   1   1
Cartesian
  5.7805593202815109  4.5092555852144152  2.9007448821789730
  8.5930593202815118  2.6342555852144152  3.8382448821789730
