 V  O                                   
    1.000000000000000     
     6.6576899999999997    0.0000000000000000    0.0000000000000000
    -0.3109884397274943    5.4293006391574838    0.0000000000000000
    -1.1456037072844434    0.9927362727244334    2.9814680650265801
   V    O 
     3     5
Direct
  0.4809699999999992  0.3850199999999973  0.1878400000000013
  0.4713899999999995  0.7591200000000029  0.0306199999999990
  0.4904700000000020  0.4137699999999995  0.0306199999999990
  0.4534099999999981  0.2553300000000007  0.2445200000000014
  0.4480300000000028  0.2552799999999991  0.0086799999999982
  0.5089499999999987  0.2265299999999968  0.1659099999999967
  0.5852399999999989  0.8165199999999970  0.2445200000000014
  0.5615400000000008  0.8884299999999996  0.0872900000000030
 
  0.00000000E+00  0.00000000E+00  0.00000000E+00
  0.00000000E+00  0.00000000E+00  0.00000000E+00
  0.00000000E+00  0.00000000E+00  0.00000000E+00
  0.00000000E+00  0.00000000E+00  0.00000000E+00
  0.00000000E+00  0.00000000E+00  0.00000000E+00
  0.00000000E+00  0.00000000E+00  0.00000000E+00
  0.00000000E+00  0.00000000E+00  0.00000000E+00
  0.00000000E+00  0.00000000E+00  0.00000000E+00
