 V  O 
 1.0000000000000000
     6.6576899999999997    0.0000000000000000    0.0000000000000000
    -0.3109884397274943    5.4293006391574838    0.0000000000000000
    -1.1456037072844434    0.9927362727244334    2.9814680650265801
   3   5
Cartesian
  2.8672221898598100  2.2768649135569716  0.5600389613345929
  2.8672125592170148  4.1518882858680506  0.0912925521511139
  3.1016411420769048  2.2768793101350147  0.0912925521511139
  2.6591355260791865  1.6290072056026590  0.7290285712602993
  2.8935118816271359  1.3946088180113705  0.0258791428044307
  3.1279160031729685  1.3946043487960555  0.4946553666685599
  3.3622951962885139  4.6758764312914467  0.7290285712602993
  3.3622680354840431  4.9102095160927997  0.2602523473961702
