 V  O 
 1.0000000000000000
     7.0548904478929257    0.0000000000000000    0.0000000000000000
    -2.6546212433394119    8.5327533141898204    0.0000000000000000
    -0.0079047842476657    2.8037958204679874    6.1963194707174312
   1   1
Cartesian
  4.4227447101529238  7.5432745673289041  3.5669097353587156
 -0.0303802898470762  3.7932745673289041  2.6294097353587156
