 V  O                                   
    1.000000000000000     
     6.7839448305760364   -0.4085223475293449    2.0251027476014074
    -3.8053233558692150    7.0394412401917918   -2.1371540395899538
     2.3788521076392373   -0.6881461207268553   11.7123572716194424
   V    O 
     3     4
Direct
  0.3470846554838237  0.7058656817630933  0.4580528166273119
  0.7372928571487311  0.0458222863117281 -0.5010655226263496
  0.3256426031913970  0.4732660015119600 -0.1039641792725892
  0.9019583080033469  0.1633277894334093  0.1759123994582405
  0.2718274537143994  0.2359585478369513  0.2131672282329050
  0.6696540626528077  0.8050068004801467  0.6800967812402221
  0.2465400598054941  0.0707528926627042 -0.4221995236597341
 
  0.00000000E+00  0.00000000E+00  0.00000000E+00
  0.00000000E+00  0.00000000E+00  0.00000000E+00
  0.00000000E+00  0.00000000E+00  0.00000000E+00
  0.00000000E+00  0.00000000E+00  0.00000000E+00
  0.00000000E+00  0.00000000E+00  0.00000000E+00
  0.00000000E+00  0.00000000E+00  0.00000000E+00
  0.00000000E+00  0.00000000E+00  0.00000000E+00
