 V  O                                   
    1.000000000000000     
     2.7947684935217243   -0.6583449833444256    1.4450452026693130
    -1.9409640793257648    5.9394591554640241    0.3661581084614344
     2.8350451672013950    1.2592960883017266    4.9824078235669269
   V    O 
     3     5
Direct
  0.3796290581196262  0.6871311875198073  0.8851511244444376
  0.1716430408847773  0.2816630501985511 -0.0002659130075272
  0.3218697272490513  0.5837806556349254  0.9843057573570788
  0.8327559727749119  0.7514629327566725 -0.4994946614410606
 -0.2053864527973220  0.2247264681226688  0.5490257022959846
  0.4115343333899083  0.3105073040409804  0.5898297994362612
  0.0978344766882651  0.7550113392262507  0.0465744495103347
  0.9901198436907741  0.4057170625001366  0.4448737414044982
 
  0.00000000E+00  0.00000000E+00  0.00000000E+00
  0.00000000E+00  0.00000000E+00  0.00000000E+00
  0.00000000E+00  0.00000000E+00  0.00000000E+00
  0.00000000E+00  0.00000000E+00  0.00000000E+00
  0.00000000E+00  0.00000000E+00  0.00000000E+00
  0.00000000E+00  0.00000000E+00  0.00000000E+00
  0.00000000E+00  0.00000000E+00  0.00000000E+00
  0.00000000E+00  0.00000000E+00  0.00000000E+00
