 V  O                                   
    1.000000000000000     
    15.7943372271176194   -1.9282925877378425    7.7748666823904955
    -3.7956468816145161   26.0084429257649177    1.8168472701095180
    13.2600438092081934   12.9447010835644054   20.0284403486286458
   V    O 
     3     6
Direct
 -0.0980205244648086  0.0946731654390064  0.2139604350474990
 -0.0865656769567992  0.2883649692622814  0.4075276816048580
  0.7462029103097052  0.0538518516661116  0.0133771169572544
  0.8471727343009715  0.8099938966474221 -0.9921111040552971
  0.3602474701079275  0.4167509592221861 -0.8938639520968000
 -0.5889740704243634 -0.3452635384685611  0.8436547802965169
  0.9846067656817318  0.6880045519532536  0.4669490052597705
  0.5772864325056565 -0.2263688304930923 -0.9639430480735113
 -0.2419560410600120  0.7199929747713956  0.4044490850596982
 
  0.00000000E+00  0.00000000E+00  0.00000000E+00
  0.00000000E+00  0.00000000E+00  0.00000000E+00
  0.00000000E+00  0.00000000E+00  0.00000000E+00
  0.00000000E+00  0.00000000E+00  0.00000000E+00
  0.00000000E+00  0.00000000E+00  0.00000000E+00
  0.00000000E+00  0.00000000E+00  0.00000000E+00
  0.00000000E+00  0.00000000E+00  0.00000000E+00
  0.00000000E+00  0.00000000E+00  0.00000000E+00
  0.00000000E+00  0.00000000E+00  0.00000000E+00
