 V  O 
 1.0000000000000000
     5.4238490597588420    0.0000000000000000    0.0000000000000000
    -0.7167671395134657    3.8679808165088350    0.0000000000000000
    -5.0328021635585136   -3.0803809230031316    4.3152117380913166
   3   6
Cartesian
 -2.0899434549899034  0.3677582800861847  2.5482308690456588
 -1.1524434549899034  0.3677582800861847 -0.2642691309543412
 -0.4493184549899034  2.7115082800861847  5.5951058690456588
 -2.3243184549899034  1.7740082800861847 -1.2017691309543412
 -0.2149434549899034  1.0708832800861847  3.9544808690456588
  0.2538065450100966 -1.7416167199138153  4.6576058690456588
  0.2538065450100966  1.3052582800861847  0.4388558690456588
  1.6600565450100966 -1.0384917199138153  1.3763558690456588
  2.5975565450100966 -1.2728667199138153  2.3138558690456588
