 V  O 
 1.0000000000000000
     5.2305135398567701    0.0000000000000000    0.0000000000000000
     0.3193545956507706    5.1646629941757682    0.0000000000000000
    -3.6639466829292977    0.6609373752720603    4.4250214501592957
   3   3
Cartesian
  0.3179607262891215  5.0612376847239142  2.9546982250796479
  0.3179607262891215  5.0612376847239142  3.4234482250796479
  1.0210857262891215  2.0143626847239142  3.6578232250796479
 -2.0257892737108785  2.4831126847239142  2.4859482250796479
  2.1929607262891215  3.1862376847239142  0.1421982250796479
  3.8335857262891215 -0.3293873152760858  0.6109482250796479
