 V  O                                   
   1.00000000000000     
     3.6497343586036743   -0.0948907099346781    0.0966865678551168
    -3.2283958075507906    5.4946025014300419    0.5901634217088603
     1.1726691633026425    0.7106242892830028    5.1624407885092625
   V    O 
     1     1
Direct
  0.7806810052324082  0.5236706342372034  0.4820142537343334
  0.2193189947675915  0.4763293657627963  0.5179857462656668
 
  0.00000000E+00  0.00000000E+00  0.00000000E+00
  0.00000000E+00  0.00000000E+00  0.00000000E+00
