 V  O 
 1.0000000000000000
     5.1420599999999999    0.0000000000000000    0.0000000000000000
    -4.5084040804438716    6.6274439890758075    0.0000000000000000
     1.5348291511763994    0.2122675190086262    5.7126625369150812
   1   1
Cartesian
  2.2561017944863822  4.1229749145998804  2.3876073073036581
 -0.0876167237538549  2.7167365934845527  3.3250552296114226
