 V  O 
 1.0000000000000000
     3.7139034605200094    0.0000000000000000    0.0000000000000000
    -1.0776137871545286    3.7339862523600109    0.0000000000000000
    -0.7962995253328566   -0.0388394693077249    3.9221134328737302
   2  11
Cartesian
  0.1808123817086198 -0.0815131469353956  4.5752394087445580
  1.5870623817086198  2.7309868530646044  1.0596144087445580
 -1.9285626182913802  2.7309868530646044  0.1221144087445580
 -0.2879376182913802  3.9028618530646044  0.1221144087445580
  0.1808123817086198  1.0903618530646044 -0.1122605912554420
  0.1808123817086198  3.1997368530646044  1.7627394087445580
  0.1808123817086198  3.4341118530646044  1.0596144087445580
  0.8839373817086198 -0.5502631469353956  1.7627394087445580
  1.5870623817086198  1.3247368530646044  3.8721144087445580
  1.8214373817086198  2.2622368530646044  3.4033644087445580
  2.2901873817086198  2.9653618530646044 -0.1122605912554420
  2.5245623817086198  0.6216118530646044  4.1064894087445580
  2.7589373817086198  0.3872368530646044  3.8721144087445580
