 V  O                                   
   1.00000000000000     
    16.6885196553457327   -5.6457631640125507    3.7649004786874052
   -11.7081165819075217   31.1427965466111374   -5.8939454145044898
     3.9165420161533997   10.2793585465975337    3.5819266527564495
   V    O 
     2     9
Direct
  0.2182462852716947  0.6620129445203375 -0.4403338322315082
 -0.6113087508946887 -0.9522290397887360  0.5648565141010472
  0.6176846125663289  0.8020926577301021  0.1663494572398200
  0.0867588133635706  0.3952386986501679  0.9375315925397277
  0.5853219389162085  0.9926732490275806  0.8489896365076105
 -0.1218893601990133 -0.8561456946869734  0.1916602900291121
  0.2555651511927965  0.5254231788179764  0.2815786702570675
 -0.1755843370640766  0.1592607868606005  0.2735481172754659
  0.5990809304750520  0.4880075606990714  0.7002493948960503
  0.0840607168338059  0.9382899962185098 -0.3705226636151992
 -0.0379360004616784 -0.6546243380486361  0.3461028230008006
 
  0.00000000E+00  0.00000000E+00  0.00000000E+00
  0.00000000E+00  0.00000000E+00  0.00000000E+00
  0.00000000E+00  0.00000000E+00  0.00000000E+00
  0.00000000E+00  0.00000000E+00  0.00000000E+00
  0.00000000E+00  0.00000000E+00  0.00000000E+00
  0.00000000E+00  0.00000000E+00  0.00000000E+00
  0.00000000E+00  0.00000000E+00  0.00000000E+00
  0.00000000E+00  0.00000000E+00  0.00000000E+00
  0.00000000E+00  0.00000000E+00  0.00000000E+00
  0.00000000E+00  0.00000000E+00  0.00000000E+00
  0.00000000E+00  0.00000000E+00  0.00000000E+00
