 V  O 
 1.0000000000000000
     3.4139850955819804    0.0000000000000000    0.0000000000000000
    -0.1931848979455274    3.2701577999558409    0.0000000000000000
     0.2759376611693983    0.3927219762652844    2.8866418500467983
   3   5
Cartesian
  0.0198533044029254  3.8529242631105625  3.0253521750233991
  0.2542283044029254  3.6185492631105625  3.2597271750233991
  4.0042283044029254 -0.1314507368894375 -1.8965228249766009
  0.9573533044029254 -0.8345757368894375  1.1503521750233991
  1.1917283044029254 -1.0689507368894375  0.9159771750233991
  1.8948533044029254  4.5560492631105625  1.3847271750233991
  1.8948533044029254  5.2591742631105625  1.6191021750233991
  3.7698533044029254 -0.6002007368894375  2.0878521750233991
