 V  O                                   
   1.00000000000000     
     5.1997943573189103    0.3088117100634885   -0.1162789629089027
    -1.6451415365115711    3.2159790411782008    0.6352208343165091
    -3.8245329224310920   -1.4314854803527999    3.4844390147495847
   V    O 
     1     4
Direct
  0.9273321200387676  0.1478978805633191  0.1329352646210104
  0.8761287417440051  0.6654928539997594 -0.0610733274841011
  0.3297651978630017  0.9110274158063034  0.6562007460581254
  0.2808859499954356  0.6566668119062032  0.1910862274314777
 -0.9141120096412030 -0.8810849622755785 -0.4191489106265199
 
  0.00000000E+00  0.00000000E+00  0.00000000E+00
  0.00000000E+00  0.00000000E+00  0.00000000E+00
  0.00000000E+00  0.00000000E+00  0.00000000E+00
  0.00000000E+00  0.00000000E+00  0.00000000E+00
  0.00000000E+00  0.00000000E+00  0.00000000E+00
