 V  O 
 1.0000000000000000
     4.3056491679899445    0.0000000000000000    0.0000000000000000
     0.0956015749103672    4.2581121974426734    0.0000000000000000
     0.7556276809267121    0.0895641816818626    4.6676102408315829
   3   5
Cartesian
  0.8792204619135120  0.1816506895622680  2.1873207454157910
  3.9260954619135120  4.6347756895622680  4.2966957454157910
  5.0979704619135120  2.5254006895622680  4.0623207454157910
  0.8792204619135120  1.5879006895622680  1.4841957454157910
  2.0510954619135120  1.8222756895622680  3.1248207454157910
  2.5198454619135120  0.4160256895622680  2.8904457454157910
  2.5198454619135120  2.2910256895622680  1.0154457454157910
  2.7542204619135120  3.9316506895622680 -0.3908042545842090
