 V  O 
 1.0000000000000000
     3.6064748253984305    0.0000000000000000    0.0000000000000000
    -0.2597710819918274    3.2173373862700347    0.0000000000000000
    -1.0697859065167270   -0.4400098771212577    3.2304300815616664
   3   6
Cartesian
 -0.7365410815550621 -0.7988362454256119  2.2402150407808330
  2.5447089184449379  0.3730387545743881  1.0683400407808330
  3.2478339184449379  2.7167887545743881  2.4745900407808330
  0.2009589184449379 -0.3300862454256119  1.3027150407808330
  0.2009589184449379  4.1230387545743881 -0.1035349592191670
  0.4353339184449379  2.4824137545743881  4.8183400407808330
  1.3728339184449379  1.5449137545743881  1.5370900407808330
  1.3728339184449379  1.7792887545743881  2.2402150407808330
  1.6072089184449379  0.6074137545743881 -1.0410349592191670
