 V  O                                   
    1.000000000000000     
    17.2224418262580592    1.8359752487921908   13.6956644644086332
     0.5295561673909708    7.4298832738927238    0.2645709785882566
    13.8584653751072313    0.7113426715955268   20.6555958931365815
   V    O 
     3     6
Direct
  0.0599238044730938  0.0844293042146276  0.6841112493575313
  0.6439753525776136  0.7564603083691471  0.7850874267503404
 -0.9637860854374792 -0.7073119398490008 -0.0031357774001570
  0.2190941131988134  0.2396331846214586  0.2039494107415087
  0.5570699533598453  0.2681979569605550  0.1985107209188410
  0.0714592318875280  0.3238581150509053  0.0733354872244692
 -0.0471800188251541 -0.9203710167380834 -0.4353733550462525
  0.6826595370540002  0.3411831456705049  0.7542170244632270
  0.2767841117117315  0.1139209416998925  0.2392978129904965
 
  0.00000000E+00  0.00000000E+00  0.00000000E+00
  0.00000000E+00  0.00000000E+00  0.00000000E+00
  0.00000000E+00  0.00000000E+00  0.00000000E+00
  0.00000000E+00  0.00000000E+00  0.00000000E+00
  0.00000000E+00  0.00000000E+00  0.00000000E+00
  0.00000000E+00  0.00000000E+00  0.00000000E+00
  0.00000000E+00  0.00000000E+00  0.00000000E+00
  0.00000000E+00  0.00000000E+00  0.00000000E+00
  0.00000000E+00  0.00000000E+00  0.00000000E+00
