 V  O                                   
   1.00000000000000     
     8.3795315709419089   -0.7714344686845742   -2.4024876309426322
    -2.9363835681271651    3.3340135194159117    0.7995770094856255
    -5.5671157552353456   -0.6276502691682997    7.8079884374335107
   V    O 
     3     1
Direct
  0.3440411127149227 -0.0726478126563746  0.8697988666089238
 -0.0622136119508532 -0.0500645045763599 -0.4324882151210607
  0.6148673168202934  0.8328443980170616  0.7631142372356955
  0.1033051824156372  0.2898679192156656  0.7995651112764384
 
  0.00000000E+00  0.00000000E+00  0.00000000E+00
  0.00000000E+00  0.00000000E+00  0.00000000E+00
  0.00000000E+00  0.00000000E+00  0.00000000E+00
  0.00000000E+00  0.00000000E+00  0.00000000E+00
