 V  O                                   
   1.00000000000000     
     5.5910325518921429   -0.8097250651806118   -0.6926775413194171
    -1.9713136069168014    3.3581513883908460    0.1479951218066625
     0.9621253916961786    0.4608066835322412    2.7314729564565901
   V    O 
     1     4
Direct
  0.5332505520021897  0.7315809328058340  0.1981873145814392
  0.8938711445572513 -0.0355711804582746  0.4968027785821124
  0.3935406750205125  0.2571805819166757  0.7647766644668877
  0.1056313798816522  0.4260262217919943  0.3400135700727751
  0.5737162485383905  0.1207834439437777  0.7002196722967847
 
  0.00000000E+00  0.00000000E+00  0.00000000E+00
  0.00000000E+00  0.00000000E+00  0.00000000E+00
  0.00000000E+00  0.00000000E+00  0.00000000E+00
  0.00000000E+00  0.00000000E+00  0.00000000E+00
  0.00000000E+00  0.00000000E+00  0.00000000E+00
