 V  O 
 1.0000000000000000
     8.3521272006622151    0.0000000000000000    0.0000000000000000
    -2.8099361754456327    6.6431093137816513    0.0000000000000000
    -2.1256243367764096   -2.6846813083111734    8.1898727072152369
   1   1
Cartesian
  4.1692208442200869  2.2135890027352390  4.0949363536076184
 -0.7526541557799131  1.7448390027352390  4.0949363536076184
