 V  O 
 1.0000000000000000
     3.8299492712509786    0.0000000000000000    0.0000000000000000
    -1.4759392212140352    4.6715330536700810    0.0000000000000000
     0.6608866903186781    0.1140131596691577    5.1420395075415941
   3   2
Cartesian
  0.8043233701778103  1.2208981066696190  5.0553947537707966
  1.0386983701778103  1.4552731066696190  5.2897697537707966
  2.2105733701778103  1.4552731066696190 -1.0383552462292034
  0.3355733701778103  4.5021481066696190  2.0085197537707966
  3.1480733701778103  3.3302731066696190  1.5397697537707966
