 V  O                                   
   1.00000000000000     
     4.8815730265274047    0.0133564206875984    0.2708384109578506
    -3.4840842247884840    4.4010488720214624   -0.3080633901505598
    -1.8543774586600226   -2.9045911625061267    3.3323312256961137
   V    O 
     2     5
Direct
 -0.1573722208760961  0.0543972966989389  0.5223065701321008
  0.2504097502036340 -0.1599577017032292  0.7668376951284575
  0.8602413273019559  0.2999504409953582  0.2917222609853721
  0.3469874072303326  0.6236413364161750 -0.0458445149124572
  0.6006301456868621  0.5387532391197261 -0.5744312834490714
  0.3899737950155754 -0.0087757536888125  0.5235174595618355
  0.2091297954377360  0.1519911421618443  0.0158918125537552
 
  0.00000000E+00  0.00000000E+00  0.00000000E+00
  0.00000000E+00  0.00000000E+00  0.00000000E+00
  0.00000000E+00  0.00000000E+00  0.00000000E+00
  0.00000000E+00  0.00000000E+00  0.00000000E+00
  0.00000000E+00  0.00000000E+00  0.00000000E+00
  0.00000000E+00  0.00000000E+00  0.00000000E+00
  0.00000000E+00  0.00000000E+00  0.00000000E+00
