 V  O                                   
    1.000000000000000     
    31.8852088037208112    2.7002628697831978   -3.5871008139383300
    -9.9538860255933184    8.0727515088254069    3.4863121584463692
   -22.8332299018126683   -7.6156189635303662   26.2176558580218213
   V    O 
     3     5
Direct
  0.1500279552551576  0.5159713018291647  0.3543427610912699
 -0.6678626418382807 -0.8012738215546872 -0.4236927417304797
 -0.0134322568954445 -0.2960114292409187 -0.8851805741742966
  0.6378867097936133  0.9614240079859321  0.1129535588650327
 -0.6170707226171614 -0.1280319280828073 -0.9665587835750679
 -0.8573115011226133  0.6219502738228311  0.3301035816704441
  0.0187228609754512  0.7802128581694944  0.6726546084333309
 -0.6509604035507190 -0.6542412629290126 -0.1946224105802351
 
  0.00000000E+00  0.00000000E+00  0.00000000E+00
  0.00000000E+00  0.00000000E+00  0.00000000E+00
  0.00000000E+00  0.00000000E+00  0.00000000E+00
  0.00000000E+00  0.00000000E+00  0.00000000E+00
  0.00000000E+00  0.00000000E+00  0.00000000E+00
  0.00000000E+00  0.00000000E+00  0.00000000E+00
  0.00000000E+00  0.00000000E+00  0.00000000E+00
  0.00000000E+00  0.00000000E+00  0.00000000E+00
