 V  O 
 1.0000000000000000
     5.1879679352203985    0.0000000000000000    0.0000000000000000
    -1.8565293988807821    2.7980186944566436    0.0000000000000000
    -2.9579386476317686   -2.9752114505615892    4.4910140513301604
   3   5
Cartesian
 -1.4538750556460762  2.7532004969475272  4.5013664006650806
 -1.4538750556460762  3.2219504969475272  3.0951164006650806
  0.4211249443539238  0.8782004969475272  4.2669914006650806
 -0.9851250556460762  0.1750754969475272  4.0326164006650806
  0.6554999443539238 -2.4030495030524728 -0.8892585993349194
  1.1242499443539238 -1.9342995030524728 -0.8892585993349194
  1.5929999443539238 -1.9342995030524728 -0.8892585993349194
  1.5929999443539238 -1.4655495030524728  4.7357414006650806
