 V  O                                   
   1.00000000000000     
     4.8801279019963966   -0.0000000000000000    0.0000000000000000
    -0.3016015004820546    4.2735279615362272   -0.0000000000000000
     1.9576448388566996    2.5603795585401419    3.1065651836344945
   V    O 
     1     1
Direct
  0.3679242411798078  0.6656504316667158  0.9867021313501634
  0.6320757588201921  0.3343495683332843  0.0132978686498367
 
  0.00000000E+00  0.00000000E+00  0.00000000E+00
  0.00000000E+00  0.00000000E+00  0.00000000E+00
