 V  O 
 1.0000000000000000
     4.8801279019963966    0.0000000000000000    0.0000000000000000
    -0.3016015004820546    4.2735279615362272    0.0000000000000000
     1.9576448388566996    2.5603795585401419    3.1065651836344945
   1   1
Cartesian
  3.7368356201855208  5.1747662600381847  3.0767200918172470
  2.7993356201855208  1.6591412600381847  0.0298450918172470
