 V  O                                   
   1.00000000000000     
    29.3766185886465223    2.9973468663304081    1.5096816072107386
     2.6584400130530512   38.7080474249436577   -2.6916907161412480
     5.6027218624517054   19.6265259502947167    6.9589150554852051
   V    O 
     2     6
Direct
 -0.2006668895392389 -0.0078371679207546 -0.8777222233572695
  0.2682158210138772 -0.2023547884660728  0.5303350526978784
 -0.2608982597342754  0.7171651800799138 -0.3377380829827068
  0.4098953644114642  0.8983642176169142  0.1729307884341864
 -0.4688409490435884 -0.0572987562873218  0.5823434661598611
  0.4175371793778492 -0.4807472053532545  0.4604689524604114
  0.0246954066266992  0.1496385364612219  0.4563375591202612
  0.8100623268872185  0.9830699838693596  0.0130444874673837
 
  0.00000000E+00  0.00000000E+00  0.00000000E+00
  0.00000000E+00  0.00000000E+00  0.00000000E+00
  0.00000000E+00  0.00000000E+00  0.00000000E+00
  0.00000000E+00  0.00000000E+00  0.00000000E+00
  0.00000000E+00  0.00000000E+00  0.00000000E+00
  0.00000000E+00  0.00000000E+00  0.00000000E+00
  0.00000000E+00  0.00000000E+00  0.00000000E+00
  0.00000000E+00  0.00000000E+00  0.00000000E+00
