 V  O                                   
   1.00000000000000     
     5.3810396685568893    0.0856318865267244    0.0039957700730789
    -0.2420399768116693    3.5560256077472641   -0.3492002053015800
     0.3434338281292694   -1.8191876140758656    4.1804307885263778
   V    O 
     1     1
Direct
  0.4974215210811492  0.2814712063569682  0.0564342969139217
  0.5025784789188503  0.7185287936430317  0.9435657030860781
 
  0.00000000E+00  0.00000000E+00  0.00000000E+00
  0.00000000E+00  0.00000000E+00  0.00000000E+00
