 V  O 
 1.0000000000000000
     5.3957853696991487    0.0000000000000000    0.0000000000000000
    -0.3269290186286750    5.0796503223398410    0.0000000000000000
     0.3638314319185537   -1.9646453781327360    4.2768960096464550
   1   1
Cartesian
  2.9507188914945139 -0.3174975278964478  4.3650105048232275
  2.4819688914945139  3.4325024721035522 -0.0881144951767725
