 V  O                                   
    1.000000000000000     
    16.7550827265690145   -2.5201616412675651   -0.7420418760217287
    -7.9261301855281197   13.8055728932781907    0.7410850729079220
    -9.3614781185173932    3.4232850094327727    3.1831539232593093
   V    O 
     3     7
Direct
  0.3168643592744758  0.2352689294494229  0.5435446802051089
  0.5973192001381340  0.8810518682957357  0.2401372455583650
  0.8269376182657024  0.1604014879164453  0.8070466025244979
  0.6123811046793427 -0.8320788671478166 -0.3182080155083416
 -0.1601058172222555  0.6612808496501543  0.3558543830856863
  0.6379196429588186  0.9175751730530611  0.6583400332641826
  0.2174754342047344  0.6280082026433450  0.8724389358600212
  0.6232181072044040  0.1960580234571256  0.5974716604524281
  0.3323390935312142  0.4169443253136891  0.6096918513821457
  0.9956612569654330  0.7354800073688338  0.6336826231759057
 
  0.00000000E+00  0.00000000E+00  0.00000000E+00
  0.00000000E+00  0.00000000E+00  0.00000000E+00
  0.00000000E+00  0.00000000E+00  0.00000000E+00
  0.00000000E+00  0.00000000E+00  0.00000000E+00
  0.00000000E+00  0.00000000E+00  0.00000000E+00
  0.00000000E+00  0.00000000E+00  0.00000000E+00
  0.00000000E+00  0.00000000E+00  0.00000000E+00
  0.00000000E+00  0.00000000E+00  0.00000000E+00
  0.00000000E+00  0.00000000E+00  0.00000000E+00
  0.00000000E+00  0.00000000E+00  0.00000000E+00
