 V  O 
 1.0000000000000000
     5.7655200000000004    0.0000000000000000    0.0000000000000000
    -1.8489819062125037    4.5096288086824599    0.0000000000000000
    -2.1190290219307908   -0.3466029833854068    8.3757654496901583
   3   7
Cartesian
 -1.1871589695105127  0.9096213899763279  3.9300766643036162
  1.3909539006333189  3.7221169220776371  2.5237856453006384
  2.7972071599680266  0.6752738991894121  6.0394294351535862
  1.3649353784810403  1.5562346473800814  2.2894317280183083
 -1.1611364510798576  4.2474129380834471  4.6332221738051054
  0.6878483261372100  0.6752435166134410  4.8675760910874359
  0.9221743446912278  2.0815082459126679  2.7582233202374660
  2.7711327770032441  1.0875160318396477  4.6332221738051054
 -0.4580320169951846  3.5442693646972216  4.8675760910874359
  1.8596970549740790  2.3158870744272937  5.3362839256520962
