 V  O                                   
   1.00000000000000     
     4.5044894480395890    0.0000000000000000    0.0000000000000000
    -0.5555266602604895    3.5031455930000188    0.0000000000000000
     1.0854668973545529    3.0768795142238270    3.5257741114998042
   V    O 
     2     3
Direct
  0.2047558494156547  0.9165093895463912  0.5132949526877297
  0.4302409469042701  0.9214651513615735  0.5797697161263571
  0.5460613715041873  0.6975200266261226  0.8485473183014136
  0.2240589839546345  0.1647681452528715  0.9121435333195151
  0.0948828482212534  0.7997372872130484  0.6462444795649915
 
  0.00000000E+00  0.00000000E+00  0.00000000E+00
  0.00000000E+00  0.00000000E+00  0.00000000E+00
  0.00000000E+00  0.00000000E+00  0.00000000E+00
  0.00000000E+00  0.00000000E+00  0.00000000E+00
  0.00000000E+00  0.00000000E+00  0.00000000E+00
