 V  O                                   
    1.000000000000000     
     9.6305072599455048    2.1433394115544977   -6.2480749166456651
     2.6140340016689763   31.9311274515005401   -7.6052984562173256
    -9.7890341464479071    1.1494744250097284   22.2028991661501713
   V    O 
     3     7
Direct
  0.6802847066208896  0.2366849310037436  0.3006858243435422
  0.4762459745107365  0.8900602654235439 -0.2187493637391948
 -0.1639199307743535  0.0807143100581821  0.9922363529973901
  0.4422020645060439  0.8289147539067414  0.2111786077332969
  0.2408859648969789 -0.1043768156197882  0.7547778236339223
 -0.2235664450712112 -0.3859115826147391  0.8009420864507244
  0.5905883981206741 -0.4164386416054563  0.6537284254002097
 -0.8670151640368742  0.7931046821720351 -0.0697985481921258
 -0.2309470792254407 -0.3168603847522926 -0.5602753780600492
  0.0552415104525634  0.3941084820280273 -0.8647158305677120
 
  0.00000000E+00  0.00000000E+00  0.00000000E+00
  0.00000000E+00  0.00000000E+00  0.00000000E+00
  0.00000000E+00  0.00000000E+00  0.00000000E+00
  0.00000000E+00  0.00000000E+00  0.00000000E+00
  0.00000000E+00  0.00000000E+00  0.00000000E+00
  0.00000000E+00  0.00000000E+00  0.00000000E+00
  0.00000000E+00  0.00000000E+00  0.00000000E+00
  0.00000000E+00  0.00000000E+00  0.00000000E+00
  0.00000000E+00  0.00000000E+00  0.00000000E+00
  0.00000000E+00  0.00000000E+00  0.00000000E+00
