 V  O 
 1.0000000000000000
     3.4423900000000001    0.0000000000000000    0.0000000000000000
    -0.1888556886260633    5.0469377596492677    0.0000000000000000
    -0.9083390713102834    1.3775928897126197    4.4657845395679807
   3   7
Cartesian
  1.8464406128878632  1.4075601543111136  0.8032160072866970
  0.5866608988566038  2.8138028885914084  3.1469490493427643
  0.6598638278161488  4.4544699572076594  4.0844511977342712
  1.2165709713921860  4.9232330715488519  0.5688516346501693
  1.4801104627036594  1.8476672717499474  3.3939962500716652
  0.1178978689027969  2.1107251481138509  3.6157224524612155
 -0.2776033730210907  3.2825539259981658  2.2094469009512587
 -0.2776168052363273  3.7513400483580446  1.9750825283147309
  0.8942618532415337  4.2200927847592622  3.6157224524612155
  1.1286517280738966  4.6888146618126489  3.3813134219792924
