 V  O 
 1.0000000000000000
     3.2278099999999998    0.0000000000000000    0.0000000000000000
     2.8938801341177318    9.4098014557672105    0.0000000000000000
    -7.1302286231856096    5.2879449999975678    1.8520016366637964
   2   5
Cartesian
  0.2073980814811851 11.3644960087307467  1.2713435635205963
  2.6289438663706810 11.6046209457074134  0.8485130698538850
  1.1164297514810304  6.3108706408686244  0.8255482495592539
  1.5851407680999823  6.3109947998875686  0.3568251553360137
 -1.6177402488231816  2.8979554944996018  0.6141422627340816
  0.5947845279393335  5.2359407817128920  0.3338603350413826
 -0.9146094958023349  2.4291948257577509  0.3797714556142781
