 V  O                                   
   1.00000000000000     
    20.2359540660709207    5.6821467125080121    2.3112428460575800
    12.8972068361177179   16.4500498156228332   -1.9816096358795161
    -3.8239739841748848   -5.9518294928476765   15.0400469855084715
   V    O 
     2     7
Direct
  0.8485477473119891 -0.0416781493067341 -0.0556661054377179
  0.3600611743215888  0.6355249985644031  0.8604486773861327
 -0.0989995283698668 -0.0173739674807090 -0.0970623896982122
 -0.3361827560066391  0.5084756997346336  0.0562030735390696
  0.2071179459605246  0.2927645545692157  0.7928706930861603
  0.0758485949217498  0.5094197515189903  0.1398228194389720
  0.6704428707158188  0.6754718150038351 -0.8539469048790473
  0.5368969718282910  0.5985284892815903 -0.0191336369017433
 -0.7637330206834557  0.3388668081147816  0.6764637734663868
 
  0.00000000E+00  0.00000000E+00  0.00000000E+00
  0.00000000E+00  0.00000000E+00  0.00000000E+00
  0.00000000E+00  0.00000000E+00  0.00000000E+00
  0.00000000E+00  0.00000000E+00  0.00000000E+00
  0.00000000E+00  0.00000000E+00  0.00000000E+00
  0.00000000E+00  0.00000000E+00  0.00000000E+00
  0.00000000E+00  0.00000000E+00  0.00000000E+00
  0.00000000E+00  0.00000000E+00  0.00000000E+00
  0.00000000E+00  0.00000000E+00  0.00000000E+00
