 V  O                                   
    1.000000000000000     
     5.5963276444298886   -0.3369008335624818    0.0799990689394336
    -1.8443700616637531    5.4628071152361857    0.1805355731425022
     0.1299761218602055    1.2611829008229938    3.7289670371308286
   V    O 
     3     5
Direct
  0.2840468905359386  0.9168549261396177  0.1233784487833780
  0.4492931246994437  0.4900720850550210  0.2756475719069225
  0.8480452462316801 -0.2419826215278664  0.6252251596656598
  0.1424972318486799  0.6520960287609644  0.6079272260743095
  0.2361250771230043  0.1203902762040071  0.4208920550190667
  0.5215685980355742  0.4893357570271796  0.7687709611890403
  0.6089373180464954  0.8722068748142716  0.0921014215149370
 -0.0905134865208241  0.7010266735268120  0.0860471558466826
 
  0.00000000E+00  0.00000000E+00  0.00000000E+00
  0.00000000E+00  0.00000000E+00  0.00000000E+00
  0.00000000E+00  0.00000000E+00  0.00000000E+00
  0.00000000E+00  0.00000000E+00  0.00000000E+00
  0.00000000E+00  0.00000000E+00  0.00000000E+00
  0.00000000E+00  0.00000000E+00  0.00000000E+00
  0.00000000E+00  0.00000000E+00  0.00000000E+00
  0.00000000E+00  0.00000000E+00  0.00000000E+00
