 V  O 
 1.0000000000000000
     5.1110199999999999    0.0000000000000000    0.0000000000000000
    -1.3758622999026249    5.1351465066350990    0.0000000000000000
     0.1359239865588147    1.1153203751754495    3.3794777969675218
   3   5
Cartesian
  0.8808493718290482  4.4142968481930840  0.3420707426090526
  2.9902153897685206  2.5392970908495736  1.0452048930461151
  3.5574014995158358  1.8927382335577458  0.4782299030488740
  3.8825120904932890  4.4142708414859877  3.1545735495793332
  1.3496126992600228  0.8986569718162329  0.8108381078264175
  1.8183572910986239  3.0080623221090317  3.1545735495793332
  2.1886553799142003  5.0608567269858948  3.2528149691371793
  3.9277416655053514  2.7736773390408924  1.2795716782658129
