 V  O                                   
   1.00000000000000     
     4.3861147697520986    0.0000000000000000    0.0000000000000000
    -0.5220827185581866    4.0711327683822098    0.0000000000000000
     0.9191904272557947    1.4759738258323347    3.5286854426352372
   V    O 
     2     1
Direct
  0.2139820911072940 -0.0917019532090303  0.2495982198746349
  0.4881476521765709  0.6305889994491649  0.0366465792616531
  0.7978702567161353 -0.0388870462401345 -0.7862447991362878
 
  0.00000000E+00  0.00000000E+00  0.00000000E+00
  0.00000000E+00  0.00000000E+00  0.00000000E+00
  0.00000000E+00  0.00000000E+00  0.00000000E+00
