 V  O                                   
   1.00000000000000     
     3.2977337494224845    0.0000000000000000    0.0000000000000000
     0.7809480196312728    6.1414451046831902    0.0000000000000000
     1.5316988849376043    1.9933013750872333    4.2355501632262902
   V    O 
     2     9
Direct
  0.8089938694167813  0.4569347724164246  0.7716455094328936
  0.2033532438833774  0.0563250083175575  0.2182935457732924
  0.0348059366118605  0.3716368975653381  0.3289639385052183
  0.1329899055326607  0.2571483711656128  0.3289639385052183
  0.9862039970703904  0.9832638172201200  0.9376510985307718
  0.3370010460607560  0.6791826822774283  0.4396343312371371
  0.5593780104794988  0.7722466616642052  0.8823159021648124
  0.5106717427192464  0.4950976145496639  0.7716455094328936
  0.9484906798458468  0.9575533315152214  0.0522879566754142
  0.1008995163612667  0.6140877523160384  0.0522879566754142
  0.8772120520183222  0.8565230909923969  0.7163103130669342
 
  0.00000000E+00  0.00000000E+00  0.00000000E+00
  0.00000000E+00  0.00000000E+00  0.00000000E+00
  0.00000000E+00  0.00000000E+00  0.00000000E+00
  0.00000000E+00  0.00000000E+00  0.00000000E+00
  0.00000000E+00  0.00000000E+00  0.00000000E+00
  0.00000000E+00  0.00000000E+00  0.00000000E+00
  0.00000000E+00  0.00000000E+00  0.00000000E+00
  0.00000000E+00  0.00000000E+00  0.00000000E+00
  0.00000000E+00  0.00000000E+00  0.00000000E+00
  0.00000000E+00  0.00000000E+00  0.00000000E+00
  0.00000000E+00  0.00000000E+00  0.00000000E+00
