 V  O 
 1.0000000000000000
     5.4826434621901230    0.0000000000000000    0.0000000000000000
    -2.1306318035119554    7.4454803737794943    0.0000000000000000
     1.2675139728694778    1.3860166632483324    4.9075645034530142
   3   6
Cartesian
 -0.2162788508928433  3.1657485185139134  0.2141989183931727
  2.8305961491071567  6.6813735185139134  2.0891989183931727
  5.1743461491071567  5.9782485185139134  3.0266989183931727
  0.7212211491071567  2.4626235185139134 -0.2545510816068273
  0.7212211491071567  4.5719985185139134  1.6204489183931727
  0.9555961491071567  5.9782485185139134  3.0266989183931727
  1.1899711491071567  6.4469985185139134  3.7298239183931727
  1.4243461491071567  6.2126235185139134  3.9641989183931727
  7.9868461491071567 -1.7561264814860866  4.6673239183931727
