 V  O 
 1.0000000000000000
     3.4400400000000002    0.0000000000000000    0.0000000000000000
    -1.4531193453008602    4.1094078534397633    0.0000000000000000
     0.5129716997263311    1.3333399417794225    3.3981292681908859
   3   3
Cartesian
  0.2733593407517281  4.2057553211530427  2.2459255772254023
  2.6640080508311890  0.7994503332846534  1.5428186503440260
  2.3827609391953026  2.7995072275292414  1.3084496747169005
 -0.4739880625618208  1.7005495094088787  0.0196751684628252
  0.2265087689655614  4.0964260377491417  3.1834354610265856
  2.4269790945009997  2.7265960506111342  1.8940832727969181
