 V  O                                   
    1.000000000000000     
     4.6292999999999997    0.0000000000000000    0.0000000000000000
    -0.4929901264125125    4.7565202338747365    0.0000000000000000
     2.8799776358462235    2.8155458729682161    1.2926357788399796
   V    O 
     3     5
Direct
  0.7126400000000004  0.3762400000000028  0.3214499999999987
  0.2897600000000011  0.8987100000000012  0.6896199999999979
  0.7710099999999969  0.8648900000000026  0.0411799999999971
  0.3804500000000033  0.0924199999999971  0.7775099999999995
  0.2475000000000023  0.3610299999999995  0.9532900000000026
  0.5002799999999965  0.2243300000000019  0.0411799999999971
  0.1843999999999966  0.3522499999999980  0.1345999999999989
  0.9139600000000030  0.8301299999999969  0.0411799999999971
 
  0.00000000E+00  0.00000000E+00  0.00000000E+00
  0.00000000E+00  0.00000000E+00  0.00000000E+00
  0.00000000E+00  0.00000000E+00  0.00000000E+00
  0.00000000E+00  0.00000000E+00  0.00000000E+00
  0.00000000E+00  0.00000000E+00  0.00000000E+00
  0.00000000E+00  0.00000000E+00  0.00000000E+00
  0.00000000E+00  0.00000000E+00  0.00000000E+00
  0.00000000E+00  0.00000000E+00  0.00000000E+00
