 V  O 
 1.0000000000000000
     4.6292999999999997    0.0000000000000000    0.0000000000000000
    -0.4929901264125125    4.7565202338747365    0.0000000000000000
     2.8799776358462235    2.8155458729682161    1.2926357788399796
   3   5
Cartesian
  4.0393105578813246  2.6946503936586641  0.4155177711081114
  2.8844209887240835  6.2163890443019056  0.8914274858036267
  3.2614518416112293  4.2298109641247530  0.0532307413726304
  3.9548664491637529  2.6287126717062210  1.0050372444058726
  3.7132214051371366  4.4012782252776672  1.2322567616103641
  2.3239512079860281  1.1829743631139509  0.0532307413726304
  1.0676321377560940  2.0544567268838980  0.1739887758318613
  3.9403466134053282  4.0644743207952665  0.0532307413726304
