 V  O 
 1.0000000000000000
     5.9651899999999998    0.0000000000000000    0.0000000000000000
    -0.0601694922625235    6.8008838362892856    0.0000000000000000
     1.4863710271691006    2.2960355271051838    6.5453409363808621
   1   1
Cartesian
  4.8675789277461341  5.9547313572215410  2.2179542297020189
  2.5238126071604432  3.1421880061729284  4.3273867066788432
