 V  O                                   
   1.00000000000000     
     3.9188948097763974   -0.0561169655045808   -0.0191983612109722
    -1.7763942701125628    4.9534971067728089    0.0107908263412262
    -0.8337536336941326   -1.8566531377192022    6.0098471240357680
   V    O 
     1     1
Direct
  0.2259557518207086  0.9419474157159283  0.4494488448192527
  0.7740442481792914  0.0580525842840716  0.5505511551807473
 
  0.00000000E+00  0.00000000E+00  0.00000000E+00
  0.00000000E+00  0.00000000E+00  0.00000000E+00
