 V  O 
 1.0000000000000000
     4.9223699999999999    0.0000000000000000    0.0000000000000000
    -2.6574997879540048    6.4562115497112105    0.0000000000000000
     0.3938505722398560    0.1797653019684447    4.6343316134103452
   1   4
Cartesian
  2.1731073197306645  4.8648630125951016  2.4577714278560427
  4.0486148986246411  2.2867221040122661  3.3952967132489551
  0.5324893322587619  1.5836188917395992  1.2859343360891027
  2.1731314952273713  2.0523616247577490  3.3952967132489551
 -2.2804918614268099  5.8023764960944213  1.0515298430828073
