 V  O                                   
    1.000000000000000     
     6.9441199999999998    0.0000000000000000    0.0000000000000000
    -2.3529187673792542    7.8188821152204682    0.0000000000000000
    -2.3206139486423432   -0.8624856958587216    3.9966702509346059
   V    O 
     3     6
Direct
  0.0804899999999975  0.7100000000000009  0.1090500000000034
  0.2808800000000033  0.4466899999999967  0.1676900000000003
  0.7694499999999991  0.5454500000000024  0.5195500000000024
  0.3062499999999986  0.9457099999999983  0.3436200000000014
  0.2656399999999977  0.5430899999999994  0.2263400000000004
  0.5790700000000015  0.1346300000000014  0.8714000000000013
  0.5081300000000013  0.3461900000000000  0.3436200000000014
  0.8102299999999971  0.5437200000000004  0.0473300000000023
  0.8998599999999968  0.2845099999999974  0.8714000000000013
 
  0.00000000E+00  0.00000000E+00  0.00000000E+00
  0.00000000E+00  0.00000000E+00  0.00000000E+00
  0.00000000E+00  0.00000000E+00  0.00000000E+00
  0.00000000E+00  0.00000000E+00  0.00000000E+00
  0.00000000E+00  0.00000000E+00  0.00000000E+00
  0.00000000E+00  0.00000000E+00  0.00000000E+00
  0.00000000E+00  0.00000000E+00  0.00000000E+00
  0.00000000E+00  0.00000000E+00  0.00000000E+00
  0.00000000E+00  0.00000000E+00  0.00000000E+00
