 V  O 
 1.0000000000000000
     6.9441199999999998    0.0000000000000000    0.0000000000000000
    -2.3529187673792542    7.8188821152204682    0.0000000000000000
    -2.3206139486423432   -0.8624856958587216    3.9966702509346059
   3   6
Cartesian
 -1.3647030571387180  5.4573522366731382  0.4358368908644187
  0.5102953883515265  3.3479862257092816  0.6702016343792241
  2.8540786153158559  3.8167048064636053  2.0764700288730742
 -0.8959514225307162  7.0980276703741758  1.3733358316261493
  0.0415416222882928  4.0511416755544207  0.9046063445965388
  1.6821751199007928  0.3010860638008417  3.4826984566644152
  1.9165493824884943  2.4104514646571999  1.3733358316261493
  4.2371706972113099  4.2104611357026798  0.1891624029767349
  3.5571239098459908  1.4729801152300852  3.4826984566644152
