 V  O 
 1.0000000000000000
     8.6826799999999995    0.0000000000000000    0.0000000000000000
    -4.0498033625793450    8.2382708101482702    0.0000000000000000
    -1.2566719135845690    1.4507349817817510    7.9364531102906675
   2   1
Cartesian
  1.9459568623478314  8.8640410485675361  6.2338458245400110
  2.2349804462870426  5.3132193865957209  3.1869621109683202
 -3.1664335854600911  8.5945190628800443  2.4838717299276705
