 V  O 
 1.0000000000000000
     5.3036399999999997    0.0000000000000000    0.0000000000000000
    -1.7201620841918277    2.2345633141642751    0.0000000000000000
    -0.7705790914627471   -2.1111547839800768    2.9433348160680741
   2   6
Cartesian
  0.4392611947620318  0.7586119834523021  0.1689474184423075
  0.9079756327629516  0.2898676370400620  0.1689474184423075
  3.0856279442793726 -0.6334278657490594  2.6435267317033802
  3.0856377201874103  2.1790739658231488  0.0654303329611933
  1.2223322676951696 -0.8837993363683543  2.1748006622445395
  2.3821195871829248  1.8213032587694065  0.1689474184423075
 -0.8791745129428225  1.7085477404828076  0.4306393169389199
  0.8288818002091713  1.7103072737777674  0.0654303329611933
