 V  O                                   
   1.00000000000000     
     5.7193654691997500    0.6588262911520396    0.6995832064593180
    -2.4293546617466957    5.5749640053977014   -0.1168079189032833
    -1.5632152254407388   -1.0910975697490692    2.2766972661270404
   V    O 
     2     1
Direct
  0.2390498110355824  0.2890527708550792  0.2520859742219853
  0.6237812849499866  0.2259513291776321  0.0106276668366931
  0.6371589040144348 -0.0149941000327152  0.2372963589413251
 
  0.00000000E+00  0.00000000E+00  0.00000000E+00
  0.00000000E+00  0.00000000E+00  0.00000000E+00
  0.00000000E+00  0.00000000E+00  0.00000000E+00
