 V  O 
 1.0000000000000000
     7.6322400000000004    0.0000000000000000    0.0000000000000000
    -3.2739618963835544    8.0793767365700067    0.0000000000000000
    -2.3896254053891597   -1.0777779321105994    3.5472865391696362
   2   1
Cartesian
 -0.3438362501198712  3.6570863039927217  2.3205284353286011
  1.5311281501181351  1.0789606024818150  3.4924100164086820
 -0.6240712163195113  4.6886433840920194  3.0553133690521994
