 V  O 
 1.0000000000000000
     5.4097122380976455    0.0000000000000000    0.0000000000000000
    -1.5999464541274959    5.7876780042465148    0.0000000000000000
     0.0278454674395109    0.8737016668294825    4.0835495860014817
   3   6
Cartesian
 -0.4770277076285039  6.0650648355379992  3.6042747930007408
  2.1010972923714961  1.6119398355379992  3.1355247930007408
  2.5698472923714961  3.7213148355379992 -0.1457252069992592
  0.9292222923714961  2.5494398355379992  0.3230247930007408
  1.3979722923714961  0.6744398355379992 -0.1457252069992592
  1.6323472923714961  2.7838148355379992  5.4792747930007408
  1.8667222923714961  3.7213148355379992  2.9011497930007408
  3.2729722923714961  4.4244398355379992 -0.1457252069992592
  3.9760972923714961  4.4244398355379992  3.3698997930007408
