 V  O                                   
   1.00000000000000     
     5.3774765672369957   -0.3612105402536115   -0.2064089909514430
    -0.3599112400488357    2.9711365938236418   -0.7579128159758962
    -0.8706906548605818    0.8190094462688083    3.4499911142441255
   V    O 
     3     1
Direct
 -0.0133933984153772  0.5528687245360735  0.6215248375008858
  0.3867958645660147  0.3175928326176991  0.3180278230485317
  0.6216867721067760  0.9002469743951853 -0.0797562230388894
  0.0049107617425942  0.2292914684510353  0.1402035624894718
 
  0.00000000E+00  0.00000000E+00  0.00000000E+00
  0.00000000E+00  0.00000000E+00  0.00000000E+00
  0.00000000E+00  0.00000000E+00  0.00000000E+00
  0.00000000E+00  0.00000000E+00  0.00000000E+00
