 V  O                                   
    1.000000000000000     
     6.3334673380723583    0.1209269313106394   -0.2638165032290313
    -4.2454286546343143    6.7942496681195594   -0.1913425613181791
     0.9608763151784070   -0.1881787748755639    3.0043991124943648
   V    O 
     3     6
Direct
  0.1946639408383742  0.4232783422326308  0.7793965261364626
  0.5774202045798408  0.9018496743945478  0.5513832356898470
  0.5585487344147189  0.3488891085403060  0.1118052631086623
  0.3352466319754318  0.6614405900942489  0.4741577425118377
  0.1748757147657710  0.2786618488513891  0.2311632186780433
  0.7437323681997038  0.9362403045124856 -0.0040084062159182
  0.5508028669962620  0.4781130243394422  0.6729153283435092
  0.4675052794548227  0.0659216830039808  0.7494909151108976
  0.8972142587750698  0.4056154240309786 -0.0662938233633392
 
  0.00000000E+00  0.00000000E+00  0.00000000E+00
  0.00000000E+00  0.00000000E+00  0.00000000E+00
  0.00000000E+00  0.00000000E+00  0.00000000E+00
  0.00000000E+00  0.00000000E+00  0.00000000E+00
  0.00000000E+00  0.00000000E+00  0.00000000E+00
  0.00000000E+00  0.00000000E+00  0.00000000E+00
  0.00000000E+00  0.00000000E+00  0.00000000E+00
  0.00000000E+00  0.00000000E+00  0.00000000E+00
  0.00000000E+00  0.00000000E+00  0.00000000E+00
