 V  O 
 1.0000000000000000
     7.1402599999999996    0.0000000000000000    0.0000000000000000
    -4.9664474828406275    7.3736053216988759    0.0000000000000000
     1.2065382853471398   -0.0106208437687501    5.1876905178768347
   3   6
Cartesian
  0.3099868667198361  3.9158709104954910  4.1563257660177406
  0.3099446015157699  6.2596461225933808  3.6876179277275694
  1.6815672442146485  2.9890081814100760  0.3749143937269588
  0.0755755995992943  5.0877657071140812  0.8751115134606433
  1.2474401197787375  2.2752492739646706  1.8125790669461659
  1.2475163572227519  6.0252095850638296  0.6407316558629679
  1.9505953447939426  2.7440245361649911  2.5157186397391920
  2.6537457146755705  0.6346175668821767  3.6876179277275694
  4.5287022809196387  3.2127327406103978  0.4063517982652924
