 V  O                                   
   1.00000000000000     
     3.1530202723391429    0.1868197788019250    0.1142000005664151
     1.3913100758307910    2.7221748090438345    0.7971757607558946
    -0.1715225332425738    1.0452907683489592    2.9763274067075423
   V    O 
     1     1
Direct
  0.7496861765868935  0.5007296668271144  0.2493958793932720
  0.2503138234131067  0.4992703331728855  0.7506041206067279
 
  0.00000000E+00  0.00000000E+00  0.00000000E+00
  0.00000000E+00  0.00000000E+00  0.00000000E+00
