 V  O 
 1.0000000000000000
     4.6466000000000003    0.0000000000000000    0.0000000000000000
     1.7159788215531859    3.3186910748638443    0.0000000000000000
    -0.4321965809816135    0.4487367152599773    4.6126245041045228
   1   1
Cartesian
  4.0198569583071011  1.6493241177168290  1.0172682081352116
  1.9105252822644712  2.1181036724069928  3.5953562959693115
