 V  O                                   
    1.000000000000000     
     5.2788574658745553    0.0000000000000000    0.0000000000000000
    -0.5973867439408405    2.9423443735212702    0.0000000000000000
    -0.7810414343163847    0.4124713852974005    3.3323241158414318
   V    O 
     3     8
Direct
 -0.0307671070045945  0.8661332162572248  0.7295455987151265
 -0.3034233161250697 -0.1134280435119202  0.1858126216747673
  0.9504328707875124  0.4482116647144750  0.9094617681430474
  0.1766643470797122  0.1522483619558877  0.1029495428383486
  0.1256202567713282 -0.0849603617957988 -0.2167427160422081
  0.3223214522384827 -0.6771721747478012  0.5940878082944416
  0.8214295481270998  0.5247275762828814 -0.2154195903238429
  0.4180266563235429  0.6870548937389078  0.1508913125126780
  0.6588527914899911 -0.2219298428669645 -0.0947030259433372
 -0.3582361452557430  0.5746699250605607  0.2969172891490268
  0.7190786455677365  0.3444447849125447  0.0571993909819475
 
  0.00000000E+00  0.00000000E+00  0.00000000E+00
  0.00000000E+00  0.00000000E+00  0.00000000E+00
  0.00000000E+00  0.00000000E+00  0.00000000E+00
  0.00000000E+00  0.00000000E+00  0.00000000E+00
  0.00000000E+00  0.00000000E+00  0.00000000E+00
  0.00000000E+00  0.00000000E+00  0.00000000E+00
  0.00000000E+00  0.00000000E+00  0.00000000E+00
  0.00000000E+00  0.00000000E+00  0.00000000E+00
  0.00000000E+00  0.00000000E+00  0.00000000E+00
  0.00000000E+00  0.00000000E+00  0.00000000E+00
  0.00000000E+00  0.00000000E+00  0.00000000E+00
