 V  O                                   
    1.000000000000000     
    46.1167112438200917   13.9366952917495297   13.1631384316650557
    -2.7452151854203590   22.2935209117027462    7.3924931842143575
     7.5936137736991709   22.1543663567035622   39.1498198579832959
   V    O 
     3     5
Direct
 -0.8556190606525187 -0.4911463938775474 -0.2330423989547985
 -0.3447326045848358  0.6999274174659632  0.8522542810857553
  0.8718166925078995 -0.2670167819764072 -0.4904635777949189
 -0.3580170387145654 -0.6680909192937051 -0.8008054624185624
  0.2544135813175750 -0.1412388357591521  0.6527710978478760
  0.9718815195821796  0.3340603288667716  0.8321633724125673
  0.6632294316780207  0.9387239166679103  0.6694951180835951
  0.7970274788662547  0.5947812679061638  0.5176275697384864
 
  0.00000000E+00  0.00000000E+00  0.00000000E+00
  0.00000000E+00  0.00000000E+00  0.00000000E+00
  0.00000000E+00  0.00000000E+00  0.00000000E+00
  0.00000000E+00  0.00000000E+00  0.00000000E+00
  0.00000000E+00  0.00000000E+00  0.00000000E+00
  0.00000000E+00  0.00000000E+00  0.00000000E+00
  0.00000000E+00  0.00000000E+00  0.00000000E+00
  0.00000000E+00  0.00000000E+00  0.00000000E+00
