 V  O                                   
   1.00000000000000     
     7.4461182660752199   -0.4772554329465433    0.7580957450239216
    -1.1327341969471438    7.0013192471728969    0.3899446806015324
     1.1468819703557560    1.7805575391246005    4.1103597448692666
   V    O 
     1     1
Direct
  0.7580113693234000  0.6952590352129866  0.0629223661650740
  0.2419886306765999  0.3047409647870134  0.9370776338349260
 
  0.00000000E+00  0.00000000E+00  0.00000000E+00
  0.00000000E+00  0.00000000E+00  0.00000000E+00
