 V  O 
 1.0000000000000000
     7.5812123149883197    0.0000000000000000    0.0000000000000000
    -0.7594797076255940    6.1441369090302720    0.0000000000000000
     0.9315008991441927    1.4102037549876558    3.2076650967461839
   1   1
Cartesian
  5.2828667532534590  4.3631078320089642  0.1975825483730920
  2.4703667532534590  3.1912328320089638  3.0100825483730920
