 V  O 
 1.0000000000000000
     4.3413420174751627    0.0000000000000000    0.0000000000000000
    -2.1191648066946311    2.9278803980173524    0.0000000000000000
     0.1315525432778429    0.8763784363088197    2.9699457201132171
   1   4
Cartesian
 -2.4325101229708128  0.5896294171630858  0.2193478600566081
  0.1456148770291872  3.1677544171630858  4.2037228600566081
  1.7862398770291872  0.3552544171630858  3.0318478600566081
  2.2549898770291872  5.2771294171630858 -0.4837771399433919
  4.1299898770291872  0.1208794171630858  0.4537228600566081
