 V  O 
 1.0000000000000000
     5.4097099999999996    0.0000000000000000    0.0000000000000000
    -2.5113506986131697    3.5668026293832327    0.0000000000000000
    -3.8625861736680474   -0.5487629886301324    5.8779894645531785
   1   1
Cartesian
  0.1037822067440401  1.1574627128245329  4.1108894918245564
 -1.0680090790252583  1.8605769279285673  1.7670999727286221
