 V  O                                   
   1.00000000000000     
     4.3969783325633127    0.0000000000000000   -0.0000000000000000
    -0.4991074758526443    5.0636193792153614   -0.0000000000000000
     0.6221368789732392    0.2589431175008188    3.6150599909855545
   V    O 
     1     2
Direct
 -0.1501409012494908 -0.7194710460045585  0.0427294321489279
  0.5500397619299571  0.9038512464907281  0.0906892857254678
  0.1001011393195339  0.3156197995138304 -0.6334187178743964
 
  0.00000000E+00  0.00000000E+00  0.00000000E+00
  0.00000000E+00  0.00000000E+00  0.00000000E+00
  0.00000000E+00  0.00000000E+00  0.00000000E+00
