 V  O                                   
   1.00000000000000     
     8.6329709043815761    0.2970392818798080    0.9340377313787059
    -4.3790093307802431    7.1669666404137846   -0.3594415153045253
     4.4799981613300917   -0.4725059713697585    6.1855256128865479
   V    O 
     1     1
Direct
  0.2049326850006441  0.3967815130101706  0.8338683028344480
  0.7950673149993562  0.6032184869898295  0.1661316971655519
 
  0.00000000E+00  0.00000000E+00  0.00000000E+00
  0.00000000E+00  0.00000000E+00  0.00000000E+00
