 V  O 
 1.0000000000000000
     7.1943804929321979    0.0000000000000000    0.0000000000000000
    -3.8407097780908042    5.5631579984845558    0.0000000000000000
     3.2616124615568309   -0.5472690415537972    4.5351126179206620
   1   1
Cartesian
  2.7217040881991124  1.6876319784653795  3.7909938089603310
  3.8935790881991124  3.3282569784653795  0.7441188089603310
