 V  O                                   
   1.00000000000000     
     2.9486484455638147    0.0338156498016625   -0.1061557164082034
    -1.0857062402156354    3.7613816606822743   -0.1172131567984828
     0.0160808217788999   -0.4585751372065697    2.9128572307137008
   V    O 
     1     1
Direct
  0.7500854961558847  0.5005566777286563  0.2494069159662154
  0.2499145038441153  0.4994433222713436  0.7505930840337848
 
  0.00000000E+00  0.00000000E+00  0.00000000E+00
  0.00000000E+00  0.00000000E+00  0.00000000E+00
