 V  O 
 1.0000000000000000
     4.6292970224295393    0.0000000000000000    0.0000000000000000
    -1.7315358236375704    6.1980037266337638    0.0000000000000000
     0.1777851058148275   -0.6162781039829939    4.3918726793785448
   1   1
Cartesian
  2.3580856523033979  2.2049253113253844  1.1412488396892724
  0.7174606523033979  3.3768003113253844  3.2506238396892724
