 V  O 
 1.0000000000000000
     4.2902197044961730    0.0000000000000000    0.0000000000000000
     0.5771448457129258    5.7158599110604333    0.0000000000000000
    -0.8524980297353689    1.5315965319921665    6.2435698381498126
   2   4
Cartesian
  2.1246207602368656  6.9049782215262994  2.2624099190749067
  2.5933707602368656  1.5143532215262994  4.8405349190749067
 -1.1566292397631344  1.9831032215262994  2.0280349190749067
  1.4214957602368656  1.7487282215262994  1.5592849190749067
  2.1246207602368656  4.7956032215262994  3.6686599190749067
  4.9371207602368656  4.7956032215262994  4.3717849190749067
