 V  O                                   
   1.00000000000000     
     4.0353617855731727   -0.1773646759504481    0.0322109826220007
     0.9179139129507596    3.1893768602251127   -0.0146656857505499
    -0.3736404184016609    0.1991806017507941    3.7671009622915492
   V    O 
     1     4
Direct
 -0.1569586138636850  0.0350993380834729  0.6057023306201614
  0.2602750533407052  0.1777125467503634  0.0654912661410086
  0.6551991952767866  0.5857421209937030 -0.4004191056510342
  0.1198215698315465  0.6019989769593385  0.1432243018045774
  0.6216727954146495  0.0994470172131224  0.0859912070852838
 
  0.00000000E+00  0.00000000E+00  0.00000000E+00
  0.00000000E+00  0.00000000E+00  0.00000000E+00
  0.00000000E+00  0.00000000E+00  0.00000000E+00
  0.00000000E+00  0.00000000E+00  0.00000000E+00
  0.00000000E+00  0.00000000E+00  0.00000000E+00
