 V  O                                   
   1.00000000000000     
     3.3733409730624455    0.5019104428145906    0.0023185615504529
     1.2412741899417281    3.1894550694392518    0.0683796174285192
     0.0089753184889068   -0.0672874173834935    4.7887581442496803
   V    O 
     2     3
Direct
  0.1671473280992637  0.1681668014797699  0.1319649108888165
 -0.1657984789865034 -0.1688991754307818  0.6678985129912847
  0.1659401283281926  0.1675762092410281  0.5584159603096978
  0.4984589835529007  0.5012416664334891 -0.0998993749720420
 -0.1657479609938526 -0.1680855017234988  0.2416199907822437
 
  0.00000000E+00  0.00000000E+00  0.00000000E+00
  0.00000000E+00  0.00000000E+00  0.00000000E+00
  0.00000000E+00  0.00000000E+00  0.00000000E+00
  0.00000000E+00  0.00000000E+00  0.00000000E+00
  0.00000000E+00  0.00000000E+00  0.00000000E+00
