 V  O 
 1.0000000000000000
     5.6028154485509196    0.0000000000000000    0.0000000000000000
    -2.5741129062214210    7.3088014232205811    0.0000000000000000
     2.9672150632811869    3.1568684514439678    6.3502232338884266
   3   5
Cartesian
  1.6503025528053428  6.6976786873322744  3.1458147419442133
  3.2909275528053428  3.8851786873322744  5.9583147419442133
  4.6971775528053428  6.2289286873322744  3.6145647419442133
  1.6503025528053428  7.6351786873322744  4.0833147419442133
  1.8846775528053428  5.2914286873322744  4.3176897419442133
  2.5878025528053428  3.8851786873322744  1.9739397419442133
  3.5253025528053428  3.8851786873322744  1.7395647419442133
  4.6971775528053428  4.3539286873322744  0.5676897419442133
