 V  O                                   
    1.000000000000000     
     8.8769255662464897    0.0000000000000000    0.0000000000000000
    -5.1214935559769463    7.6808266192457930    0.0000000000000000
     0.4175432791743924    3.4972549041737895    3.1430733359641279
   V    O 
     3     6
Direct
  0.6497869295417900  0.0382305711905815  0.4891793815371557
  0.5861044328537517  0.5796509343609912  0.8314165962173234
  0.8379699863388126  0.8241978996701533  0.1602979888772396
  0.3869963757002921  0.6067266827288336  0.9059853303662209
  0.6366095424920104  0.9024192143520793  0.7874543181327525
  0.2054350576476907  0.1150594366881919  0.9805540645151254
  0.2263464460128688  0.1116208912673002  0.0551227986640228
  0.4441135048381710  0.1322521637926428  0.6077103937706312
  0.5266377245746128  0.1898422059492262  0.6822791279195286
 
  0.00000000E+00  0.00000000E+00  0.00000000E+00
  0.00000000E+00  0.00000000E+00  0.00000000E+00
  0.00000000E+00  0.00000000E+00  0.00000000E+00
  0.00000000E+00  0.00000000E+00  0.00000000E+00
  0.00000000E+00  0.00000000E+00  0.00000000E+00
  0.00000000E+00  0.00000000E+00  0.00000000E+00
  0.00000000E+00  0.00000000E+00  0.00000000E+00
  0.00000000E+00  0.00000000E+00  0.00000000E+00
  0.00000000E+00  0.00000000E+00  0.00000000E+00
