 V  O                                   
    1.000000000000000     
    15.4372891608273086   -8.6010861899707081    0.3481482595281223
    -9.8604404856848120   14.1202652027087687    0.0486848326859215
    -3.6616960720499114    3.7071207521843763    6.1754347688353892
   V    O 
     3     6
Direct
  0.2640460334735157 -0.2524266220804351  0.0237661259096359
 -0.2757390739942519  0.2796540813182825 -0.1519001150615491
  0.2310082593604663  0.4752569887105066  0.3562811078864381
  0.2393726942260457 -0.2913037461609769  0.3169981294735557
  0.3974846802537433 -0.1465625476492816  0.3709684948116995
 -0.5365646263175324  0.2737398276883558  0.2521085751061351
  0.1095205588283196  0.4764002949334620  0.8127481495522882
  0.8238398951211291  0.5801110679361744  0.4360495889438447
  0.2470315790485635  0.1051306553039040  0.0829799433779441
 
  0.00000000E+00  0.00000000E+00  0.00000000E+00
  0.00000000E+00  0.00000000E+00  0.00000000E+00
  0.00000000E+00  0.00000000E+00  0.00000000E+00
  0.00000000E+00  0.00000000E+00  0.00000000E+00
  0.00000000E+00  0.00000000E+00  0.00000000E+00
  0.00000000E+00  0.00000000E+00  0.00000000E+00
  0.00000000E+00  0.00000000E+00  0.00000000E+00
  0.00000000E+00  0.00000000E+00  0.00000000E+00
  0.00000000E+00  0.00000000E+00  0.00000000E+00
