 V  O                                   
   1.00000000000000     
     5.1268405773713281   -1.3668604371214279   -0.9835306745779008
     0.0123635619100255    5.7034527437888638    1.5595116337502311
    -1.1098005250148311    4.9111549021241032    5.2039721805008599
   V    O 
     1     1
Direct
 -0.0792496099682858  0.6480676490041687 -0.0284129338384322
  0.0792496099682857  0.3519323509958314  0.0284129338384322
 
  0.00000000E+00  0.00000000E+00  0.00000000E+00
  0.00000000E+00  0.00000000E+00  0.00000000E+00
