 V  O 
 1.0000000000000000
     4.5487273889929920    0.0000000000000000    0.0000000000000000
     0.9575562117247963    3.5504718945643465    0.0000000000000000
     0.1547490509030012    2.0106167838713236    3.1451192131097847
   1   1
Cartesian
  2.2445788258103949  2.4289818392178351  3.4475596065548926
  3.4164538258103949  3.1321068392178351 -0.3024403934451074
