 V  O                                   
    1.000000000000000     
     5.4409239492824195    0.0000000000000000    0.0000000000000000
    -0.6814460468060637    3.9591157951040516    0.0000000000000000
    -1.8752423528481690    1.8355379540906265    3.6098774117416044
   V    O 
     3     6
Direct
  0.6185627018476225  0.2917455176353485  0.2114398779087310
  0.6631911831306425  0.2907419159559197  0.3412919328498063
  0.8998566849054228  0.3272231405528530  0.2763659053792651
  0.9343870956421796  0.8546361485146932  0.1465138504381969
  0.1505853157215071  0.3519479435294670  0.0815878229676628
  0.4035275437607879  0.2275286850235361  0.8607001526140863
  0.4800396026136511  0.3158251205058704  0.9256261800846204
  0.5603300775345090  0.2556226946117448  0.0554782350256886
  0.7895197948436774  0.5847288336705674  0.6009960427319427
 
  0.00000000E+00  0.00000000E+00  0.00000000E+00
  0.00000000E+00  0.00000000E+00  0.00000000E+00
  0.00000000E+00  0.00000000E+00  0.00000000E+00
  0.00000000E+00  0.00000000E+00  0.00000000E+00
  0.00000000E+00  0.00000000E+00  0.00000000E+00
  0.00000000E+00  0.00000000E+00  0.00000000E+00
  0.00000000E+00  0.00000000E+00  0.00000000E+00
  0.00000000E+00  0.00000000E+00  0.00000000E+00
  0.00000000E+00  0.00000000E+00  0.00000000E+00
