 V  O                                   
    1.000000000000000     
     9.0076465635525711   -0.7283157936085746    1.0704296898792385
   -17.5739464091031863   17.9260521262240431   -1.1034165088705974
     0.5181964517254570    7.1256010779114360   11.9629860568358559
   V    O 
     3     5
Direct
  0.1628119800369695  0.6024454002629310  0.5906107992795885
  0.0564086375280153  0.2535175184983185  0.0532022971708410
  0.1556771169274053  0.6994206624611877  0.1482110603934539
  0.1515511082795392  0.4338701111014887  0.5051121303238625
  0.5337992097541423  0.6272952120908716 -0.0826422159806596
  0.2676469689827345  0.2610944023219946 -0.0518081213625365
 -0.1342054805560914  0.0962788731332581  0.7587511512664596
 -0.1936895409527150  0.0260578201299505  0.0785628989089833
 
  0.00000000E+00  0.00000000E+00  0.00000000E+00
  0.00000000E+00  0.00000000E+00  0.00000000E+00
  0.00000000E+00  0.00000000E+00  0.00000000E+00
  0.00000000E+00  0.00000000E+00  0.00000000E+00
  0.00000000E+00  0.00000000E+00  0.00000000E+00
  0.00000000E+00  0.00000000E+00  0.00000000E+00
  0.00000000E+00  0.00000000E+00  0.00000000E+00
  0.00000000E+00  0.00000000E+00  0.00000000E+00
