 V  O 
 1.0000000000000000
     6.8419499999999998    0.0000000000000000    0.0000000000000000
   -12.3841175277786135    9.2921760539803877    0.0000000000000000
    -0.2665928110864587    3.5284989058536760    7.2671348910052878
   3   5
Cartesian
 -4.7500853079712497  6.9962606163492405  4.8640387252476591
 -1.7031865700654873  8.4025157524930503  4.3953085247778185
 -7.6076484670543092  6.7619027616992202  1.3484168790260311
 -4.5156862796037478  6.0587271804904139  3.6921405527241462
 -3.3437798620753139  4.6524735966032358  2.0515121797307927
 -3.3438303902424864  6.5275511951461533  5.8015717975362513
 -3.1094065668971274  4.4181128554815334  2.9890452520193849
 -1.7031202292000134  7.4649700375523276  3.9265056529590665
