 V  O                                   
   1.00000000000000     
     8.1545560810082218    1.6906448158416438   -1.4814587954043317
     6.5965190146252057    5.1836309584564484   -1.4536939455031952
    -1.4075146077357601   -0.4222249717730195    4.3287307431705973
   V    O 
     1     1
Direct
  0.0018749259051206  0.1445770514348692  0.4899805398292251
 -0.0018749259051277 -0.1445770514348692  0.5100194601707749
 
  0.00000000E+00  0.00000000E+00  0.00000000E+00
  0.00000000E+00  0.00000000E+00  0.00000000E+00
