 V  O 
 1.0000000000000000
     3.9895767774941251    0.0000000000000000    0.0000000000000000
     2.4848631857699073    3.5810968811316131    0.0000000000000000
    -0.0114143637399930    0.1374871836195947    3.8845160847333640
   1   1
Cartesian
  1.7080752997620197  1.9764795323756044 -0.1671169576333185
  4.7549502997620197  1.7421045323756044  4.0516330423666815
