 V  O 
 1.0000000000000000
     6.5381419248209625    0.0000000000000000    0.0000000000000000
    -4.4160176942070137    9.8165742477087559    0.0000000000000000
     1.1349650625540100   -2.2438287631520519    5.6572355944963464
   1   1
Cartesian
  2.0972946465839790  3.7863727422783517  0.2504927972481732
  1.1597946465839790  3.7863727422783517  5.4067427972481727
