 V  O                                   
   1.00000000000000     
    10.8011661920860380   -0.2088173154373330   -2.8949104252202735
    -9.3841779904274105    8.3227198005174774    2.1171723730929868
     2.8093071351605534    4.1841071056727106    7.3194852698656989
   V    O 
     2     5
Direct
  0.2388246252615401 -0.4077222915900291  0.5491701329560080
  0.8312545311396244  0.0277312095386139 -0.2794947066095563
  0.7792219491621639  0.6944279911433878  0.3382481275671747
  0.0741714551802403  0.2232178157979023  0.7675563517913639
  0.4878131462142270  0.7299454013638893  0.7857214420569296
 -0.2468925481086185 -0.2444864864677162  0.4133516347648880
  0.3356068411508225  0.4768863602139521 -0.0745529825268071
 
  0.00000000E+00  0.00000000E+00  0.00000000E+00
  0.00000000E+00  0.00000000E+00  0.00000000E+00
  0.00000000E+00  0.00000000E+00  0.00000000E+00
  0.00000000E+00  0.00000000E+00  0.00000000E+00
  0.00000000E+00  0.00000000E+00  0.00000000E+00
  0.00000000E+00  0.00000000E+00  0.00000000E+00
  0.00000000E+00  0.00000000E+00  0.00000000E+00
