 V  O                                   
    1.000000000000000     
     7.9007356840333758    0.0000000000000000    0.0000000000000000
    -8.2615053328372383    9.3183563981866939    0.0000000000000000
     1.6211173443621714    0.0756630449787025    6.9716473355842590
   V    O 
     3     6
Direct
  0.3397562785514623  0.7421651164667793  0.6195317682063290
  0.3168425800322296  0.5896154691492228  0.8212416270545120
  0.9686567662077294  0.5182541671901433  0.3169669799340582
  0.1128295817946352  0.2150656865493588  0.4850585289742071
  0.1773641486283140  0.2899756430693330  0.5522951485902681
  0.1735451988751038  0.2645507018497355  0.5859134583983021
  0.4620578291235589  0.3676153338669153  0.2833486701260242
  0.8388559323890732  0.6672551599468051  0.5522951485902681
  0.1100916843979078  0.8455027219117142  0.2833486701260242
 
  0.00000000E+00  0.00000000E+00  0.00000000E+00
  0.00000000E+00  0.00000000E+00  0.00000000E+00
  0.00000000E+00  0.00000000E+00  0.00000000E+00
  0.00000000E+00  0.00000000E+00  0.00000000E+00
  0.00000000E+00  0.00000000E+00  0.00000000E+00
  0.00000000E+00  0.00000000E+00  0.00000000E+00
  0.00000000E+00  0.00000000E+00  0.00000000E+00
  0.00000000E+00  0.00000000E+00  0.00000000E+00
  0.00000000E+00  0.00000000E+00  0.00000000E+00
