 V  O                                   
   1.00000000000000     
    14.2806421885414583    0.0764577935279847   -1.3870919165649764
    -3.9719247546461118    3.6253192866171582   -0.4037471099816946
    -2.7736471036668058    0.5101342159961866    7.3917177533929443
   V    O 
     2    11
Direct
  0.7428383731671370  0.3083863278388165 -0.1014271169514296
 -0.6407364184474116 -0.2871273254319481 -0.3428104653881812
  0.0241688791436995 -0.0487762610762907  0.0419425733566448
  0.3251253626362959  0.3036923450124202 -0.4693611838464386
  0.4077723143395965 -0.4046450357384276  0.3028913204384799
  0.8665962716877245  0.0935806161208467 -0.0626095062409985
 -0.2639924682187282 -0.3137688526964519  0.3760168666861221
  0.4724716178865482  0.3661327711509097  0.4598679187692562
 -0.0999283489854528  0.0039439075304550  0.2657775138096802
 -0.0246611507636166 -0.0499831529156161 -0.0862684328109285
  0.6846914117084880 -0.2824588702685618 -0.1458402239827681
  0.7561009051959825  0.1208961548844661  0.2060671371113283
  0.2495632506497337  0.6901173755893836  0.0557635990492432
 
  0.00000000E+00  0.00000000E+00  0.00000000E+00
  0.00000000E+00  0.00000000E+00  0.00000000E+00
  0.00000000E+00  0.00000000E+00  0.00000000E+00
  0.00000000E+00  0.00000000E+00  0.00000000E+00
  0.00000000E+00  0.00000000E+00  0.00000000E+00
  0.00000000E+00  0.00000000E+00  0.00000000E+00
  0.00000000E+00  0.00000000E+00  0.00000000E+00
  0.00000000E+00  0.00000000E+00  0.00000000E+00
  0.00000000E+00  0.00000000E+00  0.00000000E+00
  0.00000000E+00  0.00000000E+00  0.00000000E+00
  0.00000000E+00  0.00000000E+00  0.00000000E+00
  0.00000000E+00  0.00000000E+00  0.00000000E+00
  0.00000000E+00  0.00000000E+00  0.00000000E+00
