 V  O 
 1.0000000000000000
     4.8263600000000002    0.0000000000000000    0.0000000000000000
    -1.6676311199029172    2.3514488439112049    0.0000000000000000
     0.0506029336758925   -2.4298234975445645    3.3358289474707323
   2  12
Cartesian
  1.5544349817096343  0.2119260291834937  0.8141090546302322
  0.7394438002264994 -0.9676498685945213  3.1578624731231688
  0.5933185689555414  0.9934223940496646  0.5251929094897921
  0.8783201927186802 -1.4363943441501097  2.2203611057259942
  2.8381939372422589  1.1571379209704808  0.8141090546302322
  3.5412992109931398 -0.4834739130246213  2.4547364475752880
  1.3200655021078689 -0.9599244777779097  2.4547364475752880
  1.3200936808249737 -0.0224488526873905  2.4547364475752880
  2.9876785720377144 -1.4363792554007258  2.6891117894245813
  0.1212011275140142  2.0946261846695826  0.1109830290823513
  3.6908402637979569 -1.2020254378774797  2.2203611057259942
  1.5780405500821628  0.6022927135528469  1.3374338999094408
  3.6638373310378780 -0.7255622345156085  1.5172350801781131
  2.4649301353856949  1.6258799463852678  0.5797337127809385
