 V  O                                   
    1.000000000000000     
     6.8696178254194882    0.8435496431988613   -1.8241192072177799
    -0.4819462119524764   10.1547294487763455    1.2887930699434631
     0.7696976363451824    1.4255575256673394   10.7840589551438946
   V    O 
     3     6
Direct
  0.2016848540794093  0.5006485492636329  0.4864539827898706
  0.4345862562775435 -0.1186625499149078  0.6129947871687409
  0.8336908340058840  0.6844245418469158  0.1460553560950045
  0.0495947465678990 -0.5821422147703340  0.8015361730232226
  0.1211000799198761  0.4819158065028744 -0.2665830397690100
  0.7527789465262923  0.1957949105317771  0.1025130474884435
  0.1412667473147264  0.9052860979159165  0.8974574153179746
  0.7076401984692428  0.8261436913113628  0.3679397734258411
  0.2576573368391124  0.6065811673127589  0.3516425044599095
 
  0.00000000E+00  0.00000000E+00  0.00000000E+00
  0.00000000E+00  0.00000000E+00  0.00000000E+00
  0.00000000E+00  0.00000000E+00  0.00000000E+00
  0.00000000E+00  0.00000000E+00  0.00000000E+00
  0.00000000E+00  0.00000000E+00  0.00000000E+00
  0.00000000E+00  0.00000000E+00  0.00000000E+00
  0.00000000E+00  0.00000000E+00  0.00000000E+00
  0.00000000E+00  0.00000000E+00  0.00000000E+00
  0.00000000E+00  0.00000000E+00  0.00000000E+00
