 V  O 
 1.0000000000000000
     3.9041000000000001    0.0000000000000000    0.0000000000000000
    -1.1373056438250850    7.0313454278269969    0.0000000000000000
     1.4567442728370510    0.4560578061014954    4.0496296835575398
   3   6
Cartesian
  3.3341465755172970  4.8768252721412493  2.5588395081495028
  4.9401838551769162  0.4236007656593095  3.2619362138087631
  2.7643957831159742  2.5584678853890344  0.7876934697487771
  2.2658727501871381  2.3114332664226200  1.5560702059069846
  4.3752523690209948  3.0145591177039952  3.8998338815627465
  2.1117874804923673  0.9051264088930928  3.6654413154784358
  2.3461421603377688  5.5926307844521679  2.9623041135223405
  2.5805303357706446  3.0145510960985864  2.0248148417787699
  0.7857883780960505  4.4207665813164407  1.5560702059069846
