 V  O 
 1.0000000000000000
     3.5971902464660990    0.0000000000000000    0.0000000000000000
    -1.3353592425525913    4.1892999594634688    0.0000000000000000
    -0.2551555897980963   -1.4096284748259549    2.9042501739416053
   3   6
Cartesian
 -0.6893706262756272 -0.2507892576812427  1.8427500869708027
  1.1856293737243728 -0.7195392576812427  3.4833750869708027
  2.3575043737243728  0.2179607423187573  3.4833750869708027
 -2.3299956262756272 -0.0164142576812427  0.2021250869708027
 -2.3299956262756272  2.0929607423187573  3.4833750869708027
 -1.1581206262756272 -0.9539142576812427  3.9521250869708027
  1.8887543737243728  1.6242107423187573 -1.6728749130291973
  2.5918793737243728  4.2023357423187573 -0.7353749130291973
  7.5137543737243728  6.3117107423187573 -0.9697499130291973
