 V  O 
 1.0000000000000000
     5.9192299999999998    0.0000000000000000    0.0000000000000000
    -2.6284545704657973    7.1109754348540299    0.0000000000000000
     0.9005825251336862    3.9402648641417897    5.9930497026416800
   3   4
Cartesian
 -1.8016787463304824  7.2566277616878141  0.7534462086161120
  1.2955669769502096  0.6144078274993623  0.7534462086161120
  3.8367210135541430  5.2577482196945544  0.8871511474820478
  0.7898643975480472  6.6640251280269895  3.2309130251911560
  1.2586020406204166  7.3671494578620580  2.9965248513208400
  2.4304891680095140  3.8514638753712243  0.4183747997414157
  3.3310564127153222 10.8386610541613120  5.9427080851394898
