 V  O                                   
   1.00000000000000     
    22.1272982671770428   -2.8669949765063243    0.8668958270517425
    -4.4070204909631920    8.5945463399161408    2.2214115813907416
    -4.6721838489984933    4.7093679836585212   17.4373110653766155
   V    O 
     2    10
Direct
 -0.1553843893697210  0.4263177299960070  0.6065589785233690
  0.9339864530084655  0.7770651580611769  0.3072958170495487
 -0.1273624820435527  0.1980774926637081  0.8191609096395237
  0.8917074380538036 -0.3508577133738773 -0.0806070097902053
 -0.7983306627123565  0.3391482598242654 -0.3515521184158097
  0.4864604792303143  0.4198954504348877  0.0547306185495202
  0.3679378489947676 -0.7254950093925278  0.7233914586801455
 -0.5793091732183764  0.9832022226696328  0.0230405296296971
  0.8812407609283079 -0.2538036915418255 -0.9249879168236653
  0.8804157215234667  0.6648849354654955  0.1660605104500883
  0.7327915667263634  0.0910638054826704  0.2427443455952051
 -0.5141635611214852  0.4305113597103901 -0.5858161230874100
 
  0.00000000E+00  0.00000000E+00  0.00000000E+00
  0.00000000E+00  0.00000000E+00  0.00000000E+00
  0.00000000E+00  0.00000000E+00  0.00000000E+00
  0.00000000E+00  0.00000000E+00  0.00000000E+00
  0.00000000E+00  0.00000000E+00  0.00000000E+00
  0.00000000E+00  0.00000000E+00  0.00000000E+00
  0.00000000E+00  0.00000000E+00  0.00000000E+00
  0.00000000E+00  0.00000000E+00  0.00000000E+00
  0.00000000E+00  0.00000000E+00  0.00000000E+00
  0.00000000E+00  0.00000000E+00  0.00000000E+00
  0.00000000E+00  0.00000000E+00  0.00000000E+00
  0.00000000E+00  0.00000000E+00  0.00000000E+00
