 V  O 
 1.0000000000000000
     5.1110199999999999    0.0000000000000000    0.0000000000000000
    -2.3477316178462617    3.6724576223783680    0.0000000000000000
     0.5633190715889832    1.4039396054907041    3.9205803776633292
   2   3
Cartesian
  1.3820409706890320  3.0069672225816602  0.8821697907780257
  1.8507925165216383  3.2413185964105122  1.1165420857547395
 -1.9031921780113283  3.3981455555725155  0.6477974958013119
  2.0851705490313384  1.6007074183374195  2.2884035606383089
  1.9906049764908786  3.7123722936582371  0.9459576335226081
