 V  O 
 1.0000000000000000
     6.4106600000000000    0.0000000000000000    0.0000000000000000
    -5.4043806747782250    8.2912521399655716    0.0000000000000000
    -3.7072369975413690    4.3222521793685500    8.2274275190975885
   1   1
Cartesian
 -0.4129630562313730  7.1270771644969031  4.5824303053117834
 -2.2879946160882207  5.4864271548372177  3.6449972137858047
