 V  O                                   
   1.00000000000000     
     4.7284622203453921    0.6880813214744235    0.5635820947553531
    -0.9238855751769881    2.9172679598307401    0.0167342183988687
     0.8033618928984183    0.6346090969331414    4.7605262337060035
   V    O 
     3     2
Direct
 -0.1792880535313787  0.1407906629335545  0.2836795578753059
 -0.3920085543701157 -0.3102275081843853 -0.1318445387397159
  0.1558140528879373 -0.5249575417915203 -0.3870419084396274
  0.4345767060587647  0.0472275101883577  0.6243462094186976
 -0.5190941510452144 -0.8528331231460048  0.1108606798853406
 
  0.00000000E+00  0.00000000E+00  0.00000000E+00
  0.00000000E+00  0.00000000E+00  0.00000000E+00
  0.00000000E+00  0.00000000E+00  0.00000000E+00
  0.00000000E+00  0.00000000E+00  0.00000000E+00
  0.00000000E+00  0.00000000E+00  0.00000000E+00
