 V  O 
 1.0000000000000000
     3.7192826267726011    0.0000000000000000    0.0000000000000000
    -0.4952181933460372    2.9210956617425854    0.0000000000000000
     0.7213173213141368   -0.5772201499335109    4.0725944328515382
   3   5
Cartesian
 -0.1366841226296494 -0.0585309940954630  1.8019222164257691
  0.5664408773703506  2.2852190059045370  0.1612972164257691
  4.7851908773703506  3.2227190059045370  3.9112972164257691
  0.8008158773703506 -0.2929059940954630  0.8644222164257691
  0.8008158773703506  1.5820940059045370  3.6769222164257691
  2.4414408773703506 -0.9960309940954630  2.2706722164257691
  3.1445658773703506  1.8164690059045370  2.0362972164257691
  3.3789408773703506  1.8164690059045370  1.5675472164257691
