 V  O 
 1.0000000000000000
     4.2736350745003957    0.0000000000000000    0.0000000000000000
    -0.7671289138759906    3.2834316745027747    0.0000000000000000
    -0.0004272023471759   -0.0840132715946265    2.8589122784069856
   3   5
Cartesian
 -0.5907105208613856  3.1231467014540737  0.8142217642034932
  2.4561644791386144  0.3106467014540737 -2.7014032357965068
  2.4561644791386144  4.0606467014540737  2.9235967642034932
  0.8155394791386144  3.8262717014540737  2.2204717642034932
  1.0499144791386144 -0.6268532985459263 -0.8264032357965068
  1.0499144791386144  3.8262717014540737  2.6892217642034932
  3.3936644791386144 -1.0956032985459263  3.1579717642034932
  3.3936644791386144 -0.6268532985459263  3.1579717642034932
