 V  O                                   
    1.000000000000000     
    18.0721685820792004    0.1880794496569668    0.1227566414734003
     1.1486083980450386   17.5553409341458639   -2.6065543950238310
    -1.8091397641319567    6.8255485963586295    9.1869800971054350
   V    O 
     3     5
Direct
  0.0730280863676526  0.2302372352190852 -0.6519392494571203
 -0.4645986929739084  0.1355618348220487 -0.6444862293971666
  0.7424450788923294 -0.1919325412690980  0.4774366927615841
  0.5015766426388713  0.4249208753088837 -0.4616887999034996
 -0.0923977745030756  0.6920576996591321  0.2316437106101657
 -0.2688728939114515  0.2626358331576768  0.9259782660550431
  0.8373830250287402 -0.8162156255232983  0.2991832885110617
 -0.3285634715391584  0.2627346886255710 -0.1761276791800614
 
  0.00000000E+00  0.00000000E+00  0.00000000E+00
  0.00000000E+00  0.00000000E+00  0.00000000E+00
  0.00000000E+00  0.00000000E+00  0.00000000E+00
  0.00000000E+00  0.00000000E+00  0.00000000E+00
  0.00000000E+00  0.00000000E+00  0.00000000E+00
  0.00000000E+00  0.00000000E+00  0.00000000E+00
  0.00000000E+00  0.00000000E+00  0.00000000E+00
  0.00000000E+00  0.00000000E+00  0.00000000E+00
