 V  O                                   
    1.000000000000000     
     5.2709570006338344   -0.5599749768845063    0.9194619370060233
    -5.9981158451743388    8.3235431666209951   -0.4575419398917465
     0.6956042062333035   -1.1060384060885600    4.8370040934510303
   V    O 
     3     6
Direct
  0.9547602323989103  0.2805859967078651  0.0484770643787490
  0.4852849727202886  0.2530889099654149  0.7895343442033141
  0.4304304577758606  0.3128844192492652  0.3450155180063962
  0.3502287773543350  0.6735377094095714  0.6873748498828515
  0.0903450231699153  0.1969106514445736 -0.3412951160562100
 -0.1699302449667550  0.8136950035299058  0.8665628206646994
  0.3323041382891531  0.4270774165206261  0.1933657873095811
  0.8223110405272662  0.8055947428671549  0.1114080292648326
  0.2042556027310229  0.7366451503056081  0.7995567023458005
 
  0.00000000E+00  0.00000000E+00  0.00000000E+00
  0.00000000E+00  0.00000000E+00  0.00000000E+00
  0.00000000E+00  0.00000000E+00  0.00000000E+00
  0.00000000E+00  0.00000000E+00  0.00000000E+00
  0.00000000E+00  0.00000000E+00  0.00000000E+00
  0.00000000E+00  0.00000000E+00  0.00000000E+00
  0.00000000E+00  0.00000000E+00  0.00000000E+00
  0.00000000E+00  0.00000000E+00  0.00000000E+00
  0.00000000E+00  0.00000000E+00  0.00000000E+00
