 V  O 
 1.0000000000000000
     5.2667000000000002    0.0000000000000000    0.0000000000000000
    -5.1299301116112854    8.7886801477800880    0.0000000000000000
    -0.2668662740468178   -1.5901799304829507    4.5490505635863849
   3   6
Cartesian
  3.8474927849238334  1.6721632403346043  0.7380834539418910
  0.6901246669014753  1.4378297161462497  3.3162123703488389
  0.4232880281197594  2.8945173290692603  3.4121063562292400
 -1.1848769003734023  4.2503267230778317  3.0817997948072322
 -0.4817529317502731  3.3128126090773367  2.1443314546633503
 -0.4817202683678264  3.3128382117141304  3.0817997948072322
 -0.4816861333454686  3.5471717359024844  0.5036708784002846
  0.0194776050281431  6.7779989955582893  0.6421439775558542
 -2.9359358521999375  5.1877681905598871  3.5505794553848093
