 V  O 
 1.0000000000000000
     7.0938392753192900    0.0000000000000000    0.0000000000000000
    -2.7416330813721426    2.9232897770094706    0.0000000000000000
     0.0054740255779417    0.3690338732084575    4.8049459005817479
   3   6
Cartesian
  1.3194651097625449  2.9222034917756297 -0.0714853830424600
  1.5538401097625449  4.7972034917756297  0.3972646169575400
  3.6632151097625449  2.2190784917756297  2.7410146169575400
  0.6163401097625449  2.6878284917756297  4.1472646169575400
  2.2569651097625449 -1.0621715082243703  4.6160146169575400
  2.2569651097625449 -0.8277965082243703  2.5066396169575400
  2.2569651097625449  0.8128284917756297  2.5066396169575400
  2.4913401097625449 -1.2965465082243703  4.3816396169575400
  3.1944651097625449  4.5628284917756297  0.3972646169575400
