 V  O                                   
    1.000000000000000     
    34.2122489452534637    4.5369586778214863   -9.2295382612178702
    16.2680801570513829    6.8134007369846774   -5.0322133314133737
    -9.7260392297247584    0.3758419121863037   12.2906197360535341
   V    O 
     3     7
Direct
  0.2601654072114462  0.1117159453625626  0.3854279652148423
 -0.7181096375727251 -0.1706620297456372  0.6870378926376035
 -0.4724910711537793  0.1155623455801709  0.9733257407525109
  0.3768650504957588  0.1922230249244741 -0.1413316148548084
  0.0016673031601138 -0.2739113482609148 -0.6199199940642245
 -0.7343207064430941  0.5335231925191840 -0.8676442015688989
  0.9130958304616807  0.8092676171893575  0.4859227352303446
  0.2809728761319917 -0.4631722783700051  0.3446285849888924
 -0.0184952663353452  0.6034322354373305 -0.7052919200244339
  0.1106502140439469  0.5420212953634849  0.4578448116881617
 
  0.00000000E+00  0.00000000E+00  0.00000000E+00
  0.00000000E+00  0.00000000E+00  0.00000000E+00
  0.00000000E+00  0.00000000E+00  0.00000000E+00
  0.00000000E+00  0.00000000E+00  0.00000000E+00
  0.00000000E+00  0.00000000E+00  0.00000000E+00
  0.00000000E+00  0.00000000E+00  0.00000000E+00
  0.00000000E+00  0.00000000E+00  0.00000000E+00
  0.00000000E+00  0.00000000E+00  0.00000000E+00
  0.00000000E+00  0.00000000E+00  0.00000000E+00
  0.00000000E+00  0.00000000E+00  0.00000000E+00
