 V  O                                   
   1.00000000000000     
     5.2247610339382025   -0.4921657289481948   -0.9455959184203560
    -1.7542073515629089    4.2721839556207772   -0.5770883847930771
     0.3628092004285098    1.6886590952760141    2.4881706205117426
   V    O 
     3     2
Direct
  0.3850076063049949  0.7665143870869014  0.5855896348573677
  0.7808202191361234  0.4384468308456886  0.9539070597865653
  0.0966143467684887  0.0756781183180142 -0.0134294953737422
  0.7998658690845589 -0.0518485976569223  0.5166952152938626
  0.4376919587058337  0.2712092614063109  0.4572375854359533
 
  0.00000000E+00  0.00000000E+00  0.00000000E+00
  0.00000000E+00  0.00000000E+00  0.00000000E+00
  0.00000000E+00  0.00000000E+00  0.00000000E+00
  0.00000000E+00  0.00000000E+00  0.00000000E+00
  0.00000000E+00  0.00000000E+00  0.00000000E+00
