 V  O                                   
   1.00000000000000     
     2.8914687112282444    1.5276260107063357    0.0633922171656607
     1.5953485246748413    4.0318993015630262    1.0435256391839756
     0.9935995845231209    1.6342151279434380    2.7394007322207665
   V    O 
     1     1
Direct
  0.5072339131835197  0.2551592269452184  0.4939289110075339
  0.4927660868164797  0.7448407730547817  0.5060710889924660
 
  0.00000000E+00  0.00000000E+00  0.00000000E+00
  0.00000000E+00  0.00000000E+00  0.00000000E+00
