 V  O 
 1.0000000000000000
     5.0112800000000002    0.0000000000000000    0.0000000000000000
     0.3618677296850769    4.0454777224837821    0.0000000000000000
     1.0443649796989658    0.5476422103678624    3.5130511204224999
   1   1
Cartesian
  3.5499923689675805  1.1807767557875704  1.7565255602112499
  2.8675203404164620  3.4123431770640744  1.7565255602112499
