 V  O                                   
    1.000000000000000     
     5.5135100000000001    0.0000000000000000    0.0000000000000000
    -0.9002717001423798    3.5654265936662823    0.0000000000000000
     0.9494841895158076    2.1819680857595563    3.7915945429576574
   V    O 
     3     7
Direct
  0.2994345890640130  0.0905405054597819  0.2944493118449186
  0.2284844067638903  0.3870096582910254 -0.2707994305907984
  0.4533655869142355  0.5513106752265100  0.0893334309736918
  0.2962227705355620  0.7496505283288510 -0.2825507161419567
 -0.6513093045129613 -0.5964400748075041  0.2582624102783095
  0.6990192914683733 -0.9015184930378022 -0.5743384416346791
 -0.2902833454903722  0.5806418474718298  0.3849740885570901
  0.4081374994616185  0.0631890336223694  0.8962812972105612
  0.6491406000295747  0.6269906278160502  0.4811458467938865
 -0.0922120942339267 -0.5513643083711276  0.7232422027089684
 
  0.00000000E+00  0.00000000E+00  0.00000000E+00
  0.00000000E+00  0.00000000E+00  0.00000000E+00
  0.00000000E+00  0.00000000E+00  0.00000000E+00
  0.00000000E+00  0.00000000E+00  0.00000000E+00
  0.00000000E+00  0.00000000E+00  0.00000000E+00
  0.00000000E+00  0.00000000E+00  0.00000000E+00
  0.00000000E+00  0.00000000E+00  0.00000000E+00
  0.00000000E+00  0.00000000E+00  0.00000000E+00
  0.00000000E+00  0.00000000E+00  0.00000000E+00
  0.00000000E+00  0.00000000E+00  0.00000000E+00
