 V  O 
 1.0000000000000000
     5.4382027327419804    0.0000000000000000    0.0000000000000000
    -0.7646282675156816    5.7358808763733622    0.0000000000000000
    -1.3729567303728529   -1.7544295338385274    5.6705257805692293
   3   5
Cartesian
  0.6249182424267232  4.6274444212674180  2.7180753902846142
  2.2655432424267232  0.1743194212674180  3.4212003902846142
  2.4999182424267232  2.2836944212674180  5.5305753902846142
 -0.3125817575732768  3.4555694212674180  2.9524503902846142
  1.0936682424267232  1.1118194212674180  2.0149503902846142
  1.5624182424267232  1.1118194212674180  1.5462003902846142
  1.5624182424267232  1.1118194212674180  3.8899503902846142
  3.9061682424267232  2.0493194212674180  0.6087003902846142
