 V  O                                   
   1.00000000000000     
     2.9361588132148038   -0.1230921863674223   -1.0059637468273006
    -1.0482659166175539    5.8077197664402282    0.3264105975038717
     0.6493017393113586    2.9454765417289086    1.0868306401091308
   V    O 
     1     1
Direct
  0.2516400160216742  0.9606565364027994  0.8313078672371729
  0.7483599839783259  0.0393434635972007  0.1686921327628199
 
  0.00000000E+00  0.00000000E+00  0.00000000E+00
  0.00000000E+00  0.00000000E+00  0.00000000E+00
