 V  O 
 1.0000000000000000
     5.5618471867193522    0.0000000000000000    0.0000000000000000
    -1.1064422982041551    5.8473573521909250    0.0000000000000000
     2.4418134110619296    2.8850982672863092    1.5432256130333437
   1   1
Cartesian
  3.2142341497885631  2.2568528097386169  1.4747378065166714
  3.6829841497885631  6.4756028097386169  0.0684878065166714
