 V  O 
 1.0000000000000000
     4.3233066126836652    0.0000000000000000    0.0000000000000000
     0.0102024106874549    3.4005621636335497    0.0000000000000000
    -0.3652680610192026    0.1476472932660353    3.6042008058600059
   2   2
Cartesian
  3.8005267311759585  5.4655109784497924  0.1614754029300034
  4.0349017311759585  1.4811359784497924  0.6302254029300034
 -0.1838482688240415  0.0748859784497924  3.4427254029300034
  0.2849017311759585  0.0748859784497924  2.9739754029300034
