 V  O 
 1.0000000000000000
     5.3957899999999999    0.0000000000000000    0.0000000000000000
    -1.8254382741498734    4.6381802776701910    0.0000000000000000
     2.4659950404564355    4.3150111532231836    3.0058801157903474
   1   4
Cartesian
  5.6900488406997116  4.4296941511776318  1.8779236023400196
  6.3983459312583415  5.3672503517158798  2.8154275516538712
  6.6326883590727546  5.8359848505772298  2.8154275516538712
  5.5779199571340108  6.1665708383199780  2.3057204604193018
  4.0494388680580240  4.8984895386659009  0.7060812391991526
