 V  O                                   
   1.00000000000000     
     2.7936897955117197   -0.3545142049563673    0.1544257290878185
    -2.0281844703257512    5.7259426762349692    0.1625338671007814
     0.2798447494942276    3.1117175230891392    3.6279607144242996
   V    O 
     2     3
Direct
 -0.0620110823666185 -0.0976486352000491  0.0480106676240374
  0.3640700635192406  0.3451485765743305  0.1940790485895992
  0.2650273873536195 -0.3223138579679006  0.0751773017253381
  0.4347991561775176  0.4624373083787465  0.6782619950327291
  0.4981144753162408  0.1123766082148732  0.5044609870283001
 
  0.00000000E+00  0.00000000E+00  0.00000000E+00
  0.00000000E+00  0.00000000E+00  0.00000000E+00
  0.00000000E+00  0.00000000E+00  0.00000000E+00
  0.00000000E+00  0.00000000E+00  0.00000000E+00
  0.00000000E+00  0.00000000E+00  0.00000000E+00
