 V  O 
 1.0000000000000000
     4.3056500000000000    0.0000000000000000    0.0000000000000000
    -2.0154966685756937    4.3605352445497187    0.0000000000000000
     0.7958817182202275    2.3576262306100118    3.4121342288137559
   2   3
Cartesian
  2.2459922385482685  1.0610063118596451  1.1904253897485433
  0.9359286204922652  1.6930487172004844  0.6943010728790230
 -0.1454722149797147  4.7323114636880987  1.5556943589430559
  2.8075074357972549  2.2467968041730502  2.9619372386640692
  3.8866202540117727  2.7016815701660226  2.1279433904574105
