 V  O                                   
    1.000000000000000     
     6.2640954004966618    0.0000000000000000    0.0000000000000000
    -1.7571909390467486    2.7250607867667473    0.0000000000000000
    -0.4942623548704356    1.9373086592043796    4.0857631775354601
   V    O 
     3     5
Direct
  0.5376087562629195  0.2848447049456908  0.6682245513676719
  0.6311392330941743  0.5641160508871010  0.0449563284142869
  0.2772054686062901  0.4968617021444288  0.7007733841526331
  0.0544490586901674  0.1350537966364840  0.2418627918037615
  0.1582125418422464  0.7226011578455882  0.4139542639345848
  0.1784152233945662  0.6773751696570969  0.3565904398909794
  0.5731250207549792  0.5552266096171721  0.8155010322398510
  0.5898446973546640  0.5639208082664453  0.7581372081962385
 
  0.00000000E+00  0.00000000E+00  0.00000000E+00
  0.00000000E+00  0.00000000E+00  0.00000000E+00
  0.00000000E+00  0.00000000E+00  0.00000000E+00
  0.00000000E+00  0.00000000E+00  0.00000000E+00
  0.00000000E+00  0.00000000E+00  0.00000000E+00
  0.00000000E+00  0.00000000E+00  0.00000000E+00
  0.00000000E+00  0.00000000E+00  0.00000000E+00
  0.00000000E+00  0.00000000E+00  0.00000000E+00
