 V  O                                   
   1.00000000000000     
    20.0271634002141248   13.7318854462725000   14.7542589980972565
     6.3767830514339749   21.0065380476616959    9.6330068541034546
    25.8120695287767461   24.7390047438334726   24.2628784166913576
   V    O 
     1     4
Direct
  0.2042281778945621  0.0842153617681176  0.1749923715460317
  0.8336769898884846  0.7945764561162845 -0.5338916565467002
 -0.4858574001840097 -0.1828598856192394  0.6107515787606062
  0.2368493722101711  0.3257545318396600  0.0416828691271358
  0.7111028601907986  0.4783135358951782  0.2064648371129197
 
  0.00000000E+00  0.00000000E+00  0.00000000E+00
  0.00000000E+00  0.00000000E+00  0.00000000E+00
  0.00000000E+00  0.00000000E+00  0.00000000E+00
  0.00000000E+00  0.00000000E+00  0.00000000E+00
  0.00000000E+00  0.00000000E+00  0.00000000E+00
