 V  O                                   
   1.00000000000000     
     4.2226427845366752    1.0041915046656644   -0.2142573621317218
    -0.8345838120857043    3.0368933648905170   -0.7020627469515272
    -3.3910633374225196   -3.2120062175202913    4.1951756529077793
   V    O 
     2     1
Direct
  0.9133827252743314  0.3348355744696081  0.8335077539875928
  0.9376173491302309  0.3373537648290248  0.3350316126894518
  0.6489999255954380  0.8278106607013670  0.3314606333229479
 
  0.00000000E+00  0.00000000E+00  0.00000000E+00
  0.00000000E+00  0.00000000E+00  0.00000000E+00
  0.00000000E+00  0.00000000E+00  0.00000000E+00
