 V  O                                   
   1.00000000000000     
     5.3809716822323095   -0.0078915749960018   -0.1006214313719333
     0.8572698854269786    2.8364134924283686   -0.5596192806909138
     0.0756724380895721    2.0709018628568492    2.1832557562845731
   V    O 
     2     1
Direct
  0.1005234350058989  0.7595711556984340  0.3652236185303139
  0.5647568202870051  0.1283872094790778  0.1895398654754038
  0.8347297447070992  0.6120416348224873  0.9452365159942828
 
  0.00000000E+00  0.00000000E+00  0.00000000E+00
  0.00000000E+00  0.00000000E+00  0.00000000E+00
  0.00000000E+00  0.00000000E+00  0.00000000E+00
