 V  O                                   
    1.000000000000000     
     9.8970800000000008    0.0000000000000000    0.0000000000000000
    -6.1738170797400462   18.9965425229411160    0.0000000000000000
     5.1515471035850728    9.5598609981875491    7.7052253240821473
   V    O 
     3     5
Direct
  0.7653000000000034  0.7804799999999972  0.1387900000000002
  0.7097199999999972  0.6788099999999986  0.1692000000000036
  0.1944700000000026  0.2472199999999987  0.0513300000000001
  0.8840199999999996  0.2808100000000024  0.9600700000000018
  0.3173800000000000  0.3169100000000000  0.7167299999999983
  0.7135000000000034  0.5711999999999975  0.2604600000000019
  0.7018100000000018  0.5652600000000021  0.3212899999999976
  0.7137999999999991  0.5593199999999996  0.3821300000000036
 
  0.00000000E+00  0.00000000E+00  0.00000000E+00
  0.00000000E+00  0.00000000E+00  0.00000000E+00
  0.00000000E+00  0.00000000E+00  0.00000000E+00
  0.00000000E+00  0.00000000E+00  0.00000000E+00
  0.00000000E+00  0.00000000E+00  0.00000000E+00
  0.00000000E+00  0.00000000E+00  0.00000000E+00
  0.00000000E+00  0.00000000E+00  0.00000000E+00
  0.00000000E+00  0.00000000E+00  0.00000000E+00
