 V  O 
 1.0000000000000000
     9.8970800000000008    0.0000000000000000    0.0000000000000000
    -6.1738170797400462   18.9965425229411160    0.0000000000000000
     5.1515471035850728    9.5598609981875491    7.7052253240821473
   3   5
Cartesian
  3.4706777921110614 16.1532346162435303  1.0694082227293613
  3.7049486156282541 14.5125715108909912  1.3037241248346993
  0.6628230019736878  5.1870329075584696  0.3955092158851366
 11.9613929151771181 14.5125548543970151  7.3975556768915469
  4.8768592352121107 12.8720334641762317  5.5225661465293969
  4.8768542226522547 13.3407864846918951  2.0069029879104363
  5.1111984412169909 13.8094733666253724  2.4756118443743533
  5.5799570296527614 14.2782558471688343  2.9443977530915113
