 V  O                                   
   1.00000000000000     
     2.7567148546720865    0.2772523751906849   -0.9980450611362790
    -0.2586960562299080    3.8475662010232039   -0.0720281690826661
    -1.6224347961688812   -1.0446555186754107    3.6177966028482254
   V    O 
     1     1
Direct
  0.4983861173693593  0.4983034772693037  0.7491722216518921
  0.5016138826306411  0.5016965227306959  0.2508277783481080
 
  0.00000000E+00  0.00000000E+00  0.00000000E+00
  0.00000000E+00  0.00000000E+00  0.00000000E+00
