 V  O 
 1.0000000000000000
     5.1482599999999996    0.0000000000000000    0.0000000000000000
    -0.9294185896804665    4.3864975709051039    0.0000000000000000
    -1.5194738074232645   -0.8719404822516998    3.5843643397909930
   1   1
Cartesian
  0.4121591269646365  1.6400961700941006  2.4953269224322954
  2.2872084759316329  1.8744609185593031  1.0890374173586974
