 V  O 
 1.0000000000000000
     9.4228900000000007    0.0000000000000000    0.0000000000000000
    -5.8676760048647392   19.3309891602042576    0.0000000000000000
    -4.6513348556228156    0.1697549613662974    8.9867005938753639
   3   4
Cartesian
 -1.3181143129952746  7.6409408161424235  7.3058281147969160
  0.3225282392342740 10.9221787874480309  4.9620965999142204
  0.7912428919081064 10.4534549259088578  1.9152456305667176
 -2.4900621096879871 11.6253792900055579  3.3214845394963342
 -1.3180957085148850  8.8127812502865428  4.9620965999142204
 -0.1462176890723557 11.1565690953892389  6.1339623573555677
  0.3225072598417807  7.6409136405330846  2.8527382365197953
