 V  O                                   
    1.000000000000000     
     5.3685339957183471    0.0000000000000000    0.0000000000000000
     2.2584522866940548    6.7369487312849952    0.0000000000000000
     1.6608625936342802    0.6409556344813334    4.0204638758138707
   V    O 
     3     8
Direct
  0.2561061299004379  0.5009621546464658  0.7225828638878653
  0.2986969968683226  0.4606264110180973  0.7808783758584994
  0.2119522997296457  0.2322268002133541  0.2562187681228139
  0.9898979001969508  0.3396191801330062  0.9557649117703946
  0.1115655686297714  0.5760873867136596  0.6642873519172383
  0.5185202029518621  0.5382739836716510  0.9647412082696505
  0.5094919914232534  0.4243249652776839  0.4311053040347090
  0.5911991876790879  0.5730634721104764  0.9647412082696505
  0.6492695523237941  0.3965936893299897  0.7225828638878653
  0.6823076838461617  0.6970946175987507  0.4894008160053431
  0.6809924864507124  0.7611273392868654  0.5476963279759701
 
  0.00000000E+00  0.00000000E+00  0.00000000E+00
  0.00000000E+00  0.00000000E+00  0.00000000E+00
  0.00000000E+00  0.00000000E+00  0.00000000E+00
  0.00000000E+00  0.00000000E+00  0.00000000E+00
  0.00000000E+00  0.00000000E+00  0.00000000E+00
  0.00000000E+00  0.00000000E+00  0.00000000E+00
  0.00000000E+00  0.00000000E+00  0.00000000E+00
  0.00000000E+00  0.00000000E+00  0.00000000E+00
  0.00000000E+00  0.00000000E+00  0.00000000E+00
  0.00000000E+00  0.00000000E+00  0.00000000E+00
  0.00000000E+00  0.00000000E+00  0.00000000E+00
