 V  O 
 1.0000000000000000
     6.4958299999999998    0.0000000000000000    0.0000000000000000
    -4.7318674693436691    9.7931357190925912    0.0000000000000000
     2.1350693309427142   -0.7987884918781027    5.1485128794061428
   1   1
Cartesian
  1.5979673123214340  3.5596717436436114  1.8711240357625742
  2.3010645492776112  5.4346754835708770  3.2773888436435681
