 V  O                                   
   1.00000000000000     
     6.7037054670001952   -0.2746570623091615    0.1990523093781014
    -1.1987306570044514    7.3295658985820893    0.2677800095497561
     0.4541013636199771    3.3468603129891523    5.0916126671865909
   V    O 
     1     1
Direct
  0.6897583673193942  0.7218014443413515  0.4049108659231494
  0.3102416326806056  0.2781985556586486  0.5950891340768505
 
  0.00000000E+00  0.00000000E+00  0.00000000E+00
  0.00000000E+00  0.00000000E+00  0.00000000E+00
