 V  O 
 1.0000000000000000
     5.3290699999999998    0.0000000000000000    0.0000000000000000
    -0.7139348061134853    5.8331320787566350    0.0000000000000000
     0.3560451479589044    2.5432642391011990    3.6756249423906024
   1   1
Cartesian
  3.3058928979121291  5.2428651533030264  1.4862389454556399
  1.6652874439332903  3.1335311645548081  2.1893859969349623
