 V  O                                   
    1.000000000000000     
    15.6923886604621554    1.7937340765188419   -0.4517192420705387
    -3.8423217282890443    4.3704891368118206    0.1621749056220285
     0.3183726717534659   -1.7208394240731755    8.6400753508413732
   V    O 
     3     5
Direct
 -0.3414845389570117  0.1710753619299358 -0.0402548954964594
  0.6840297490970332 -0.2757902415586986  0.4960583023709726
  0.4136683887660237  0.0935822490554710  0.5580966589539199
  0.2299091938158811  0.4997594642740754 -0.5572519965742601
  0.5123180863376886  0.7259475306782035  0.0530252591239578
 -0.2179877690783937  0.2763504733837330 -0.6401176640999595
  0.1352563785135989  0.8631532388982304  0.5493165093042255
  0.5842905115051871  0.6459219233390490  0.5811278264176036
 
  0.00000000E+00  0.00000000E+00  0.00000000E+00
  0.00000000E+00  0.00000000E+00  0.00000000E+00
  0.00000000E+00  0.00000000E+00  0.00000000E+00
  0.00000000E+00  0.00000000E+00  0.00000000E+00
  0.00000000E+00  0.00000000E+00  0.00000000E+00
  0.00000000E+00  0.00000000E+00  0.00000000E+00
  0.00000000E+00  0.00000000E+00  0.00000000E+00
  0.00000000E+00  0.00000000E+00  0.00000000E+00
