 V  O 
 1.0000000000000000
     5.5135100000000001    0.0000000000000000    0.0000000000000000
    -1.4105138968732467    3.3960574900356808    0.0000000000000000
     0.1868988562937770   -1.0394028329964269    4.4568888990275584
   3   5
Cartesian
  1.5883136342035458  1.4127242539650244  1.1444399314922964
  2.7601737720885371  1.4126845845952061  3.4882286657129091
  4.1664271878511503  0.7095705506531368  1.1444399314922964
 -0.4736110981978245  2.9208552175449856  0.9063083576172540
  0.8852173932994399 -0.2279360488141365  1.8476032930918742
  3.2331770609677326 -0.8114953473538624  3.4882286657129091
  2.7601857432449526  1.6470808819820710  1.6132155058920150
  2.2396961442245868  2.3631345355845905  4.1950912450986797
