 V  O                                   
    1.000000000000000     
    10.9129610450428984    1.9271390245758437    0.3622638709415276
     3.2536033733517153   10.1545055591835389   -2.2617799517161830
    -1.4579858129578545   -1.1427972778606528   12.2026773513696210
   V    O 
     3     5
Direct
 -0.1572046295609897  0.0245870200638433  0.3474834336676570
  0.7738839810697630  0.2599303250894693  0.7872665719564903
  0.5274423733481376 -0.0279983309467647  0.0651156626039330
  0.4521079563636253  0.1118511399804492  0.3777150582428552
 -0.2602323325756664 -0.1561809742209144  0.6615578994089892
 -0.3769340235738105 -0.5331443508774839  0.6424427017611728
 -0.4459096090977293  0.3738696686501445 -0.3572805779329026
  0.4868462840266764 -0.0529144977387361 -0.5243007497081947
 
  0.00000000E+00  0.00000000E+00  0.00000000E+00
  0.00000000E+00  0.00000000E+00  0.00000000E+00
  0.00000000E+00  0.00000000E+00  0.00000000E+00
  0.00000000E+00  0.00000000E+00  0.00000000E+00
  0.00000000E+00  0.00000000E+00  0.00000000E+00
  0.00000000E+00  0.00000000E+00  0.00000000E+00
  0.00000000E+00  0.00000000E+00  0.00000000E+00
  0.00000000E+00  0.00000000E+00  0.00000000E+00
