 V  O 
 1.0000000000000000
     4.9253666900292821    0.0000000000000000    0.0000000000000000
     0.4875175974291536    3.6671492360806837    0.0000000000000000
    -1.0764333001715249    0.8908879585734409    4.7305038585264185
   3   5
Cartesian
 -0.3806026313565445  4.1833154723270622  0.9882988042632093
  1.4943973686434555 -2.6135595276729378 -1.5898261957367907
  2.4318973686434555  3.0114404723270622  4.9726738042632093
  0.0881473686434555 -0.9729345276729378  1.9257988042632093
  2.9006473686434555  4.6520654723270622  4.5039238042632093
  3.1350223686434555  3.9489404723270622  4.5039238042632093
  3.8381473686434555  3.0114404723270622  1.4570488042632093
  3.8381473686434555  3.0114404723270622  2.1601738042632093
