 V  O                                   
    1.000000000000000     
     9.5764086958831633   -0.7613775767223274    0.6572726198449597
    -1.0877887040361236    9.0351711367707690   -1.5563254823786341
     1.1547129159467759   -1.5467528352102693    8.0620066673842512
   V    O 
     3     5
Direct
  0.2826428233771415  0.1705491223807061  0.9706083634188865
  0.4444523834133897  0.6557678249037252  0.0483263283246927
  0.6652010433152393  0.1550122989814834  0.8089009652089287
 -0.3559073187163813  0.7081530253893689  0.5287437066200565
  0.5529435812158117 -0.0119016899712452 -0.8311308601132198
  0.4679726880658562  0.4694505934027199  0.1614645815463096
 -0.2895700183545952  0.2609300591509526 -0.9408947912114639
  0.2322648176835383 -0.4079612342377178  0.2539917062058135
 
  0.00000000E+00  0.00000000E+00  0.00000000E+00
  0.00000000E+00  0.00000000E+00  0.00000000E+00
  0.00000000E+00  0.00000000E+00  0.00000000E+00
  0.00000000E+00  0.00000000E+00  0.00000000E+00
  0.00000000E+00  0.00000000E+00  0.00000000E+00
  0.00000000E+00  0.00000000E+00  0.00000000E+00
  0.00000000E+00  0.00000000E+00  0.00000000E+00
  0.00000000E+00  0.00000000E+00  0.00000000E+00
