 V  O 
 1.0000000000000000
     6.9141199999999996    0.0000000000000000    0.0000000000000000
    -0.9349742219177061    6.3438910347474744    0.0000000000000000
     1.0341707058760001   -0.1224623467717594    4.9804483844661105
   3   5
Cartesian
  2.7449335221258786  1.1478239937548260  4.8339733974789620
  2.1795058999004016  4.3171500523001853  0.3222848149588020
  5.4197359208324913  0.7909596095800721  3.9550238665883830
  0.8699087348894454  5.1322217731461306  4.5995934965059870
  0.8699179507903270  5.3665878710464181  3.6621236970979307
  2.9793442976389901  2.5540945192682054  0.8496146899060737
  6.2605935031049107  3.0228347650231551  0.6152347889330987
  6.7293364482577882  2.5540409431603988  1.0839945908790489
