 V  O                                   
    1.000000000000000     
     9.8557804241530285    4.2177146410823765    2.3822486357165373
     1.6066705737647684   13.0423807815986379    2.3479301114329023
    -4.0424657555709658   -6.3681469702144797    1.9214285254730581
   V    O 
     3     5
Direct
  0.3548317729899663  0.3118901031506713  0.2577764133513425
  0.8360751817838055  0.4699557237120151  0.8490909138312808
 -0.8354965534165955 -0.0654988596596105 -0.4632092351276634
  0.0975655292210713  0.4540872221217737  0.9285390918448305
  0.0237495281541197  0.2426503045564455  0.2423737687789620
  0.6845957382161337  0.6742796422287446  0.7812343506798268
 -0.1493306900723959 -0.6376825838830552 -0.8126481975192792
 -0.0119905068761059  0.5503184477730292  0.2168428941606716
 
  0.00000000E+00  0.00000000E+00  0.00000000E+00
  0.00000000E+00  0.00000000E+00  0.00000000E+00
  0.00000000E+00  0.00000000E+00  0.00000000E+00
  0.00000000E+00  0.00000000E+00  0.00000000E+00
  0.00000000E+00  0.00000000E+00  0.00000000E+00
  0.00000000E+00  0.00000000E+00  0.00000000E+00
  0.00000000E+00  0.00000000E+00  0.00000000E+00
  0.00000000E+00  0.00000000E+00  0.00000000E+00
