 V  O 
 1.0000000000000000
     3.3605177182768178    0.0000000000000000    0.0000000000000000
    -1.0164496462641688    3.0733082272542083    0.0000000000000000
    -1.0061615780518538   -0.1528863847433075    3.6256487139622440
   3   5
Cartesian
 -0.3271405030196020  0.2297421712554506 -0.3844412680188780
 -0.3271405030196020  0.9328671712554506  5.0061837319811220
  0.8447344969803980  3.0422421712554506  2.8968087319811220
 -0.7958905030196020 -0.4733828287445494  3.8343087319811220
  0.1416094969803980 -0.0046328287445494  2.6624337319811220
  1.7822344969803980  0.9328671712554506  0.3186837319811220
  2.0166094969803980  2.1047421712554506 -1.7906912680188780
  2.0166094969803980  4.9172421712554506  1.9593087319811220
