 V  O                                   
    1.000000000000000     
    12.7050529648585240   -2.7013651294025633    6.9075532289816284
    -0.9308706563014753    9.3050412889147740   -2.4395918663463068
     0.6097268559776032    6.3636534767690396    9.4182041163637145
   V    O 
     3     5
Direct
  0.3510177661307798  0.5447925790557807  0.3423643855362301
 -0.0994342476396408  0.2260676860919073 -0.9573385749965624
  0.7312243354628247 -0.6254783096621317  0.1866479847909712
  0.0211596378543910  0.8306209767000803  0.5855598939143525
  0.2592446346903783 -0.9653468527472455  0.4409079960200319
 -0.7122502274177145  0.1088528756749696 -0.6855434728707177
  0.4366649165852551  0.5922786904008355 -0.4891841987712319
  0.0123731843337267  0.2882123544858091  0.5765859863769189
 
  0.00000000E+00  0.00000000E+00  0.00000000E+00
  0.00000000E+00  0.00000000E+00  0.00000000E+00
  0.00000000E+00  0.00000000E+00  0.00000000E+00
  0.00000000E+00  0.00000000E+00  0.00000000E+00
  0.00000000E+00  0.00000000E+00  0.00000000E+00
  0.00000000E+00  0.00000000E+00  0.00000000E+00
  0.00000000E+00  0.00000000E+00  0.00000000E+00
  0.00000000E+00  0.00000000E+00  0.00000000E+00
