 V  O 
 1.0000000000000000
     6.3034492142850107    0.0000000000000000    0.0000000000000000
     0.0788851132814143    2.5431347199687035    0.0000000000000000
    -0.7960867967400338    2.4452482782910407    2.9769174323009970
   3   5
Cartesian
  2.0314050154131955  2.5820821241298724  1.2247868411504985
  3.6720300154131955  3.2852071241298724  3.8029118411504985
  4.6095300154131955  2.8164571241298724  1.2247868411504985
  0.8595300154131955  1.1758321241298724 -1.1189631588495015
  1.5626550154131955  0.9414571241298724  2.8654118411504985
  2.2657800154131955  3.7539571241298724 -0.6502131588495015
  3.6720300154131955  1.4102071241298724  0.0529118411504985
  3.6720300154131955  3.9883321241298724  4.5060368411504985
