 V  O 
 1.0000000000000000
     3.6969640366262211    0.0000000000000000    0.0000000000000000
    -0.9505957191640224    5.3398976021787075    0.0000000000000000
    -0.3409695285648549    1.2341508049211563    5.1998792216680894
   1   1
Cartesian
 -0.6723006055513281  3.5213992035499313  2.7171271108340447
  3.0776993944486719  3.0526492035499313  2.4827521108340447
