 V  O                                   
    1.000000000000000     
    11.8154187857089603   -0.8325386770150982   -4.9030480369075429
    -1.3422182225608108   11.1485031622591144    0.5937814145962569
    -1.9598326028382296    2.9516502967048162    5.8538794846067965
   V    O 
     3     5
Direct
  0.3908826318385476  0.3073452119986435 -0.2373494960515307
 -0.0605673061374967 -0.2266363510071152  0.0985128463889860
 -0.2395165463435581  0.2785450601642976 -0.4986284213692252
 -0.0986515876501180  0.0782186189118333  0.3913573656105934
  0.4615718398043307  0.7493196147430052  0.2617574263966077
  0.2019144683254041  0.2474421369908688  0.5092328244019889
  0.4530043063303413  0.2018344405257930  0.6001325866092577
 -0.1086478061674545  0.3639312676726813  0.8749848680133210
 
  0.00000000E+00  0.00000000E+00  0.00000000E+00
  0.00000000E+00  0.00000000E+00  0.00000000E+00
  0.00000000E+00  0.00000000E+00  0.00000000E+00
  0.00000000E+00  0.00000000E+00  0.00000000E+00
  0.00000000E+00  0.00000000E+00  0.00000000E+00
  0.00000000E+00  0.00000000E+00  0.00000000E+00
  0.00000000E+00  0.00000000E+00  0.00000000E+00
  0.00000000E+00  0.00000000E+00  0.00000000E+00
