 V  O 
 1.0000000000000000
     6.1057899999999998    0.0000000000000000    0.0000000000000000
    -0.9321062024061165    5.5070847910247442    0.0000000000000000
    -0.3219062542508410    1.4888495786760354    2.6380219074053164
   3   5
Cartesian
 -0.6209762186298934  4.2596877028041034  1.1432395540122420
  4.5352340308312034  3.5565807356972554  1.8463515329929809
  4.6821134600749534  6.4516360318170856  2.6093729894908946
 -0.6210024535229466  3.5565915158080910  1.6119896667390927
  2.3383397166971536  3.4047579163903605  0.7343725385834921
  2.6602612224659516  2.3846931073448419  0.4401011948124289
  2.9821742279363375  2.3020618752610940  2.2551921682026568
  3.1289988753685689  3.5565781723563226  2.5494898921927938
