 V  O                                   
   1.00000000000000     
    40.8909586409746737   -3.2533520609506557  -14.6174803804039666
   -11.7681213536994989   14.4976775921688041    4.3953168734108754
   -21.4269215613800874  -22.1946740568858800   17.1512321903402523
   V    O 
     2    10
Direct
  0.3198413844141466 -0.0780536410446216  0.0738522026559024
 -0.0306272206580109 -0.6350069785889918 -0.3505998993618765
  0.9146691589516814  0.0757916184249852  0.4533323620693084
 -0.8384142806745878 -0.0113134294367353 -0.3762489558598388
  0.3002129684410844  0.5511346779500863  0.0625269964619100
  0.6112484022310594  0.0369803306822147  0.1041439412547774
 -0.2577695743032862  0.0345635487542204 -0.0332805676904823
 -0.6854605179214963 -0.0527507608724563 -0.0762227370568454
  0.4645136610322501  0.6361946755847769  0.6871897193780415
 -0.7582853140345952 -0.5811116333464611 -0.4035264332663959
  0.9756068332374097  0.3180679580546916  0.9761170841146886
  0.9844744992843469 -0.2944763661616992 -0.1172837126991884
 
  0.00000000E+00  0.00000000E+00  0.00000000E+00
  0.00000000E+00  0.00000000E+00  0.00000000E+00
  0.00000000E+00  0.00000000E+00  0.00000000E+00
  0.00000000E+00  0.00000000E+00  0.00000000E+00
  0.00000000E+00  0.00000000E+00  0.00000000E+00
  0.00000000E+00  0.00000000E+00  0.00000000E+00
  0.00000000E+00  0.00000000E+00  0.00000000E+00
  0.00000000E+00  0.00000000E+00  0.00000000E+00
  0.00000000E+00  0.00000000E+00  0.00000000E+00
  0.00000000E+00  0.00000000E+00  0.00000000E+00
  0.00000000E+00  0.00000000E+00  0.00000000E+00
  0.00000000E+00  0.00000000E+00  0.00000000E+00
