 V  O                                   
    1.000000000000000     
    10.7281825994616895   -2.8337001027388991    2.9489282212908141
   -11.3212147463351478   15.5764534475540088   -4.9555015110121037
    -1.0593510922287876    0.8480147703583318   12.5932367318906238
   V    O 
     3     5
Direct
  0.9243159112676923  0.6321408566188532  0.2124178453322431
  0.2289155304630877  0.6248948371453191  0.1207427863763191
  0.3882899942682214  0.1733388939855153  0.5470045998525893
  0.1689318066409494  0.3616612879176508  0.2683239642027085
 -0.2317992738234449  0.5428868379952312  0.2527469373517076
  0.7061483373760569 -0.3761641215112627  0.3917752996610924
 -0.3463773616443934  0.2586344101791432 -0.2657179926198370
  0.1615750554518314 -0.2173930023304506  0.4726965598431737
 
  0.00000000E+00  0.00000000E+00  0.00000000E+00
  0.00000000E+00  0.00000000E+00  0.00000000E+00
  0.00000000E+00  0.00000000E+00  0.00000000E+00
  0.00000000E+00  0.00000000E+00  0.00000000E+00
  0.00000000E+00  0.00000000E+00  0.00000000E+00
  0.00000000E+00  0.00000000E+00  0.00000000E+00
  0.00000000E+00  0.00000000E+00  0.00000000E+00
  0.00000000E+00  0.00000000E+00  0.00000000E+00
