 V  O 
 1.0000000000000000
     6.8855700000000004    0.0000000000000000    0.0000000000000000
    -4.6112447013176858   10.0514311416121025    0.0000000000000000
    -2.9671441701500849    1.9465746590703286   10.1914441140698813
   3   5
Cartesian
  2.8477756213709511  6.7606817066631786  2.1659876175632720
 -1.6940575163596965  6.5263334324964335  1.2284766735099835
 -0.2877665084014901  3.2450985304503739  4.7441172350995302
 -0.7565684309384215  3.7138249818075417  3.5723049908637750
 -0.2878418133132160  7.6982388632519960  8.2597577966890761
  0.1809526171636530  7.2294824633856516  8.4941610113126824
  1.8215581422261389  6.5263794751524404  5.9160313937764251
  2.2902720738227034  6.2919642837755179  6.3848378230236396
