 V  O 
 1.0000000000000000
     3.5613625620836626    0.0000000000000000    0.0000000000000000
    -0.6919147623445259    4.3060423274445538    0.0000000000000000
    -0.5536739218617156   -1.4565709833478324    3.3621413979150239
   3   2
Cartesian
 -1.5139880610612897  2.5966106720483602  4.3060706989575124
  1.0641369389387103 -0.2158893279516398  4.7748206989575124
  3.8766369389387103  2.3622356720483602 -0.8501793010424876
 -0.3421130610612897 -1.3877643279516398  0.5560706989575124
  2.7047619389387103  3.7684856720483602 -0.3814293010424876
