 V  O                                   
   1.00000000000000     
     2.9086769332998594    0.8506460886879122    0.5474651324927508
    -0.8916516394960564    2.9324710873205775    0.4957608805858194
     0.4102922362841578    1.0352876812747591    3.0644284035093756
   V    O 
     1     1
Direct
  0.7886716707933570  0.7880139918832525  0.4036016410681895
  0.2113283292066428  0.2119860081167474  0.5963983589318103
 
  0.00000000E+00  0.00000000E+00  0.00000000E+00
  0.00000000E+00  0.00000000E+00  0.00000000E+00
