 V  O 
 1.0000000000000000
     5.2195400000000003    0.0000000000000000    0.0000000000000000
    -2.7204005188522178    5.8320573750545863    0.0000000000000000
    -0.1700398265194095    0.3563223821630895    3.3486655068798483
   1   1
Cartesian
  1.5161257805380330  4.7347966193785354  1.7915360461807190
  0.8129738740903394  1.4535831378391411  1.5571294606991295
