 V  O                                   
   1.00000000000000     
    51.4535165266915087  -18.8227906423909204   -1.0508534230847153
   -48.5943447454406794   25.5780678546455249   -3.7890695536999104
   -11.2632797475522999    2.3400604648540906   18.8526771882334536
   V    O 
     2     4
Direct
 -0.6599572896522492  0.6754757672206546 -0.8086088054774478
 -0.8250582268119508 -0.4214137042997346  0.7143411793540899
  0.0118296436917988  0.1230074138387383  0.6860184781631181
  0.4735278215148604 -0.0755418441719224 -0.5986507425981062
  0.8898345958483889 -0.0198597827418016 -0.5042688706367090
  0.1098234554091520  0.7183321501540673  0.5111687611950535
 
  0.00000000E+00  0.00000000E+00  0.00000000E+00
  0.00000000E+00  0.00000000E+00  0.00000000E+00
  0.00000000E+00  0.00000000E+00  0.00000000E+00
  0.00000000E+00  0.00000000E+00  0.00000000E+00
  0.00000000E+00  0.00000000E+00  0.00000000E+00
  0.00000000E+00  0.00000000E+00  0.00000000E+00
