 V  O                                   
   1.00000000000000     
     6.2147519783281986   -0.2632134341331903   -0.1959354536270503
    -2.4949212371686267    4.7631034749661412    0.7224781002467989
    -0.9403887053468181    2.0271648602189662    3.0828242501222087
   V    O 
     3     3
Direct
  0.2231135466470880  0.2750336106929300  0.4342365558389770
  0.0766211590173012 -0.3241058233925197  0.4713105210895235
 -0.3067197707740177  0.6689371255476061 -0.2581886568986480
  0.3426973163720163  0.2411283218047161  0.0254569786683154
  0.7548494034686922 -0.2438589124716148  0.1994461604550939
  0.9094283452689147  0.3828756778188861  0.1277384408467524
 
  0.00000000E+00  0.00000000E+00  0.00000000E+00
  0.00000000E+00  0.00000000E+00  0.00000000E+00
  0.00000000E+00  0.00000000E+00  0.00000000E+00
  0.00000000E+00  0.00000000E+00  0.00000000E+00
  0.00000000E+00  0.00000000E+00  0.00000000E+00
  0.00000000E+00  0.00000000E+00  0.00000000E+00
