 V  O 
 1.0000000000000000
     4.4764566388006601    0.0000000000000000    0.0000000000000000
    -0.9492935685419351    3.5090495413452838    0.0000000000000000
    -2.1167343547029618   -0.0856105074403815    3.5163224781650135
   1   4
Cartesian
 -1.0760356422221182  3.6335945169524511 -0.4449637609174930
  0.5645893577778818  0.5867195169524511  4.0081612390825070
  0.7989643577778818  0.5867195169524511 -1.3824637609174930
  1.2677143577778818  0.8210945169524511  2.3675362390825070
  1.9708393577778818  2.9304695169524511  4.2425362390825070
