 V  O 
 1.0000000000000000
     4.0616305319569630    0.0000000000000000    0.0000000000000000
     5.8261187240572481    2.4062029445289643    0.0000000000000000
     0.8123499267672764   -4.9620365791107748    2.2497564464676714
   3   5
Cartesian
  7.2250495913907429  1.6810675577090954  2.5018313482338357
  7.6937995913907429 -1.3658074422909046 -0.3106686517661643
  7.6937995913907429  1.4466925577090954  2.0330813482338357
  3.0062995913907429 -3.0064324422909046  3.9080813482338357
  3.0062995913907429  0.5091925577090954 -0.0762936517661643
  4.1781745913907429 -3.7095574422909046  1.7987063482338357
  4.1781745913907429 -3.4751824422909046  0.8612063482338357
  5.8187995913907429 -2.3033074422909046 -1.7169186517661643
