 V  O 
 1.0000000000000000
     6.0924457979354445    0.0000000000000000    0.0000000000000000
    -5.1413734966806608   12.1477176737406491    0.0000000000000000
    -3.8819428327758230    8.0829697218929137    4.8118102911578164
   3   5
Cartesian
 -2.8130915157605187  7.2149530728167814  4.3394988955789078
 -1.1724665157605187 12.8399530728167814  1.5269988955789078
 -0.9380915157605187  9.3243280728167814  5.0426238955789078
 -2.3443415157605187  9.7930780728167814 -0.1136261044210922
 -2.3443415157605187 10.0274530728167814  0.3551238955789078
 -0.9380915157605187  9.7930780728167814  3.4019988955789078
 -0.7037165157605187 10.0274530728167814  3.1676238955789078
 -0.4693415157605187 11.9024530728167814  1.5269988955789078
