 V  O 
 1.0000000000000000
     4.4114071424064019    0.0000000000000000    0.0000000000000000
    -0.4819086130329266    3.4943717456257275    0.0000000000000000
    -2.1609135932585444   -3.1375446880374578    2.9844162671543613
   2   6
Cartesian
 -2.7485200319425349  5.9498979037941346  0.1738487585771811
  4.0483549680574651  0.5592729037941346  3.4550987585771811
 -5.0922700319425349 -4.3626020962058654  6.9707237585771811
  0.7671049680574651 -0.3782270962058654  1.8144737585771811
  1.0014799680574651  0.0905229037941346  2.0488487585771811
  2.8764799680574651 -1.0813520962058654 -0.9980262414228189
  3.1108549680574651 -0.1438520962058654 -2.6386512414228189
  3.1108549680574651  0.7936479037941346  1.1113487585771811
