 V  O                                   
   1.00000000000000     
     5.9511177574869549    0.0000000000000000    0.0000000000000000
    -2.1777962696797681    5.7586683590129599    0.0000000000000000
    -0.6778711929534341   -0.6069577576474646    3.7064870595299286
   V    O 
     3     3
Direct
  0.3883057581910165  0.4780655210574452  0.7423959629617443
  0.3872125764983210  0.9763418194712088  0.6159285040251845
  0.3976708626637446  0.9563475081549342  0.4262273156203378
  0.3471209816490912  0.6896496399778727  0.0468249388106514
  0.5232594913950805  0.9938296542810434  0.6159285040251845
  0.9564303296027461  0.9057658570574958  0.5526947745568975
 
  0.00000000E+00  0.00000000E+00  0.00000000E+00
  0.00000000E+00  0.00000000E+00  0.00000000E+00
  0.00000000E+00  0.00000000E+00  0.00000000E+00
  0.00000000E+00  0.00000000E+00  0.00000000E+00
  0.00000000E+00  0.00000000E+00  0.00000000E+00
  0.00000000E+00  0.00000000E+00  0.00000000E+00
