 V  O 
 1.0000000000000000
     5.9511177574869549    0.0000000000000000    0.0000000000000000
    -2.1777962696797681    5.7586683590129599    0.0000000000000000
    -0.6778711929534341   -0.6069577576474646    3.7064870595299286
   3   3
Cartesian
  0.7664751474268758  2.3024178006827478  2.7516810297649643
  1.9383501474268758 -0.5100821993172522  2.2829310297649643
  2.1727251474268758 -0.5100821993172522  1.5798060297649643
  0.5321001474268758  3.9430428006827478  0.1735560297649643
  0.5321001474268758  5.3492928006827478  2.2829310297649643
  3.3446001474268758  4.8805428006827478  2.0485560297649643
