 V  O                                   
   1.00000000000000     
     2.9769258450328402   -0.2239866606888874    0.8222982317878714
    -1.0529358015253021    2.7995333262424738   -0.9746635486453472
     0.6673993757508185   -1.2280252868549164    3.5626123454906304
   V    O 
     1     1
Direct
  0.6190783403273836  0.9522337474587494  0.1834908459517533
  0.3809216596726164  0.0477662525412431  0.8165091540482394
 
  0.00000000E+00  0.00000000E+00  0.00000000E+00
  0.00000000E+00  0.00000000E+00  0.00000000E+00
