 V  O 
 1.0000000000000000
     5.5854074884917750    0.0000000000000000    0.0000000000000000
    -1.7769210718126869    3.4078837342259982    0.0000000000000000
     0.3913865470793879   -0.6766397993593324    3.1742400838568630
   1   1
Cartesian
  1.7483739818792383  3.0062469674333325  0.6496200419284310
  2.4514989818792383 -0.2750030325666675  2.5246200419284310
