 V  O                                   
   1.00000000000000     
    17.9430470582744483   11.7082791644414268   13.9178598115833516
     7.9516499826911735   17.9560889426794823   11.1335024804469302
    -0.6558211503946132   -0.1594436835649680    8.8001245981458620
   V    O 
     2     7
Direct
  0.1995347088749341  0.7155651020977770  0.9137895932011276
 -0.5827376307471673 -0.8553849686798366 -0.7017821710038880
  0.0278367131908327 -0.6760848356787369 -0.2954580450405582
  0.8548254843358470  0.2408211638591704  0.0814707273459293
  0.0711016292669663  0.0521565923519498  0.0295934507408445
  0.9291999102489503  0.4590594794794479  0.4658076928549739
  0.3386804061974681 -0.1520299302845144  0.2952030655353964
  0.3354092207988591  0.4640931403762793  0.3727012189295381
  0.3261495578333130  0.2518042564784519  0.3386744674366385
 
  0.00000000E+00  0.00000000E+00  0.00000000E+00
  0.00000000E+00  0.00000000E+00  0.00000000E+00
  0.00000000E+00  0.00000000E+00  0.00000000E+00
  0.00000000E+00  0.00000000E+00  0.00000000E+00
  0.00000000E+00  0.00000000E+00  0.00000000E+00
  0.00000000E+00  0.00000000E+00  0.00000000E+00
  0.00000000E+00  0.00000000E+00  0.00000000E+00
  0.00000000E+00  0.00000000E+00  0.00000000E+00
  0.00000000E+00  0.00000000E+00  0.00000000E+00
