 V  O 
 1.0000000000000000
     3.7922251805915352    0.0000000000000000    0.0000000000000000
    -1.4501657133341592    4.7978732083905582    0.0000000000000000
    -2.1794190804044713   -1.3709478683291960    3.7843345683528122
   2   7
Cartesian
 -2.6270131399068806  1.5051293366973475  3.4546672841764057
  2.7636118600931194  0.8020043366973475  3.2202922841764057
 -1.9238881399068806  2.2082543366973475  0.4077922841764057
 -1.6895131399068806  2.4426293366973475  0.6421672841764057
  0.1854868600931194  0.3332543366973475  0.4077922841764057
  0.1854868600931194  5.7238793366973475  2.0484172841764057
  1.1229868600931194  0.0988793366973475  1.5796672841764057
  1.3573618600931194 -0.1354956633026525  5.5640422841764057
  1.3573618600931194  2.4426293366973475 -0.2953327158235943
