 V  O 
 1.0000000000000000
     3.8299500000000002    0.0000000000000000    0.0000000000000000
    -1.4884940887025691    3.1576302067052611    0.0000000000000000
     0.7712006155221015   -0.2559057757531301    3.8497945005746113
   3   4
Cartesian
 -0.2516883334000008  2.6562156142460775  1.3891983455323484
  0.2170438843507712  0.5468430568540353  1.6235738347273307
  0.6176875735949717  0.5683816891347969  0.3518712173525195
 -0.3339691062013502  3.0013502996632764  0.6860718779474015
  2.3944892486028850  1.9315518923629056  3.5983644217420836
  2.5607860093532406  1.9530879655859097  2.3267003023122776
  0.3714738913714328  2.6562326381329604  3.4985392503421839
