 V  O                                   
    1.000000000000000     
     6.4124229576268608    0.0000000000000000    0.0000000000000000
    -1.7331169892051419    2.5501139057330748    0.0000000000000000
    -1.3692409766211708   -0.8818714225356179    2.6969620160477259
   V    O 
     3     5
Direct
  0.0972238720354426  0.7750667879611086  0.5977662545601561
  0.6311557166897330  0.3212632244215285  0.3798962910414261
  0.1739857501212256  0.8351720009808901  0.7715729293337716
  0.1287696949251611  0.9513975338684872  0.0763462302393165
  0.6462182743944069  0.7715671084395126  0.1191862788810027
  0.3580055325443325  0.6386225904440082  0.0322829414941950
  0.7024472496383325  0.9941842323343195  0.9025395554657010
  0.2621939096513657  0.7127265215501524  0.1204095189844310
 
  0.00000000E+00  0.00000000E+00  0.00000000E+00
  0.00000000E+00  0.00000000E+00  0.00000000E+00
  0.00000000E+00  0.00000000E+00  0.00000000E+00
  0.00000000E+00  0.00000000E+00  0.00000000E+00
  0.00000000E+00  0.00000000E+00  0.00000000E+00
  0.00000000E+00  0.00000000E+00  0.00000000E+00
  0.00000000E+00  0.00000000E+00  0.00000000E+00
  0.00000000E+00  0.00000000E+00  0.00000000E+00
