 V  O                                   
   1.00000000000000     
     4.2138649201994394   -1.4407692556175093    0.1926802657574917
    -1.7390813899557998    4.2950566222846902   -0.0560100137140998
     0.4694773031872364    0.9153490408153282    4.8186487841881052
   V    O 
     1     1
Direct
  0.7907869531046481  0.7400496673392741  0.9788165146272825
  0.2092130468953520  0.2599503326607260  0.0211834853727175
 
  0.00000000E+00  0.00000000E+00  0.00000000E+00
  0.00000000E+00  0.00000000E+00  0.00000000E+00
