 V  O                                   
   1.00000000000000     
     9.4486964304752465   -8.1555610972639556   -0.0988501265020999
   -18.3865012162618413   39.2848623231527512    0.5825026813766129
     3.2384792328999921  -10.1116430162496105    4.6995097097559153
   V    O 
     2     5
Direct
  0.1619707309067974  0.3119772691518546  0.0270124655758339
  0.5824348367811358  0.8169525359026464  0.6737047349101730
  0.5235309531015181  0.7114918500914196  0.6891963237867426
  0.4997661247451592  0.1502459388890571  0.2752614124310285
 -0.4803876636640136  0.9446136937149291  0.4074896404629309
  0.7100819683944818  0.1817831834725725  0.9475186338063454
  0.5026030497349134 -0.6170644712224735  0.4798167890269457
 
  0.00000000E+00  0.00000000E+00  0.00000000E+00
  0.00000000E+00  0.00000000E+00  0.00000000E+00
  0.00000000E+00  0.00000000E+00  0.00000000E+00
  0.00000000E+00  0.00000000E+00  0.00000000E+00
  0.00000000E+00  0.00000000E+00  0.00000000E+00
  0.00000000E+00  0.00000000E+00  0.00000000E+00
  0.00000000E+00  0.00000000E+00  0.00000000E+00
