 V  O                                   
    1.000000000000000     
     5.2763700000000000    0.0000000000000000    0.0000000000000000
     1.2863633890905086    3.4165916882336962    0.0000000000000000
    -0.1029091003632151    0.2852677755257966    3.8458116277073420
   V    O 
     3     6
Direct
  0.2975199999999987  0.2476899999999986  0.8702600000000018
  0.5934600000000003  0.2196199999999990  0.0281700000000029
  0.5655700000000010  0.4382299999999972  0.0530800000000013
  0.2165999999999997  0.6185800000000015  0.3577999999999975
  0.4168400000000005  0.6643800000000013  0.8093099999999964
  0.6670900000000017  0.8639900000000011  0.3577999999999975
  0.5670199999999994  0.3085700000000031  0.7843999999999980
  0.5451899999999981  0.9691199999999967  0.0891200000000012
  0.6306999999999974  0.1698299999999975  0.1500600000000034
 
  0.00000000E+00  0.00000000E+00  0.00000000E+00
  0.00000000E+00  0.00000000E+00  0.00000000E+00
  0.00000000E+00  0.00000000E+00  0.00000000E+00
  0.00000000E+00  0.00000000E+00  0.00000000E+00
  0.00000000E+00  0.00000000E+00  0.00000000E+00
  0.00000000E+00  0.00000000E+00  0.00000000E+00
  0.00000000E+00  0.00000000E+00  0.00000000E+00
  0.00000000E+00  0.00000000E+00  0.00000000E+00
  0.00000000E+00  0.00000000E+00  0.00000000E+00
