 V  O 
 1.0000000000000000
     5.2763700000000000    0.0000000000000000    0.0000000000000000
     1.2863633890905086    3.4165916882336962    0.0000000000000000
    -0.1029091003632151    0.2852677755257966    3.8458116277073420
   3   6
Cartesian
  1.7988872765617367  1.0945127295876840  3.3468560271285916
  3.4109267183548257  0.7583878598064461  0.1083365135525158
  3.5424171938538542  1.5123949890595618  0.2041356811987057
  1.9017595311136484  2.2155040965907298  1.3760314003936869
  2.9707508152289979  2.5007852492394851  3.1124538084198288
  4.5943978917303498  3.0539698628001610  1.3760314003936869
  3.3080185700467517  1.2780217403607064  3.0166546407736390
  4.1140933889110238  3.3365104010558988  0.3427387322612783
  3.5308271137687375  0.6230470488081297  0.5771024928537637
