 V  O 
 1.0000000000000000
     4.4903399999999998    0.0000000000000000    0.0000000000000000
    -1.0036618883695270    3.9798664292579615    0.0000000000000000
     0.0525410450746671    3.5846141887853431    2.4444622726770113
   2  11
Cartesian
  0.8245810001738646  4.1081110066618640  2.2604431527898861
  1.0559481290104844  3.9611758692685197  0.1840191198871254
  3.5556138798112635  4.2690322014185496  1.9253562644513211
  0.2371666392848441  2.6283745480068497  0.7534810509299620
  0.4715394926309561  5.6752553196882225  1.4566061790427773
  1.7620873469373759  5.5143570107758721  2.2604431527898861
  1.4090116452995050  5.4409123279235354  1.6909812217470495
  1.6433817272164639  3.5658972533127913  0.0503559228171464
  1.5772669196644094  4.9676266121561783  1.6909812217470495
  2.5809001911420748  3.8002919897905256  1.6909812217470495
 -0.4506398494161993  5.7442425521397915  2.0260681100856139
  2.9309705725488615  4.8986562925245680  0.6527692052956691
  3.4522691892151172  6.1395380809154778  1.6909812217470495
