 V  O                                   
   1.00000000000000     
     2.9335961647982969    1.0523413309897305   -0.1796263108454156
     1.7278369513373044    3.8635984123274825   -0.5825460065639707
     0.9029430818353923    2.3178379252956285    1.9243194090931048
   V    O 
     1     1
Direct
  0.5015434529942641  0.2489101585245256  0.5005220127617171
  0.4984565470057361  0.7510898414754744  0.4994779872382824
 
  0.00000000E+00  0.00000000E+00  0.00000000E+00
  0.00000000E+00  0.00000000E+00  0.00000000E+00
