 V  O 
 1.0000000000000000
     4.1044722416910684    0.0000000000000000    0.0000000000000000
     1.3906811394191152    2.8514061621025601    0.0000000000000000
     0.5828330210352677    2.3332158938046192    3.6810090626782848
   1   1
Cartesian
  2.3358682010727261  2.0063735279535901  1.4889420313391426
  3.7421182010727261  3.1782485279535901  2.1920670313391426
