 V  O                                   
   1.00000000000000     
     4.6194283524133422   -1.2182921167763447    0.7971109630779539
    -1.5434142029032663    5.9800647206430053   -0.8807044205075129
    -1.5773725459880559   -0.1551109984866503    7.1597588510529908
   V    O 
     1     4
Direct
 -0.4593915936977046  0.2550478871508040 -0.7104959681761590
  0.7387185438359919  0.2404318942511338  0.8777055442922181
  0.5814656285235243 -0.3836183957742360 -0.2174990746448592
  0.3036614120285777  0.3979616093324282  0.1460995422961327
  0.3355460093096186 -0.0098229949601235  0.4041899562326611
 
  0.00000000E+00  0.00000000E+00  0.00000000E+00
  0.00000000E+00  0.00000000E+00  0.00000000E+00
  0.00000000E+00  0.00000000E+00  0.00000000E+00
  0.00000000E+00  0.00000000E+00  0.00000000E+00
  0.00000000E+00  0.00000000E+00  0.00000000E+00
