 V  O 
 1.0000000000000000
     4.2299484909524745    0.0000000000000000    0.0000000000000000
    -1.1294391562944277    4.2124949562371370    0.0000000000000000
    -1.2243860057488343   -1.1938264595401673    3.8666265704689233
   2   5
Cartesian
 -0.1333669069739649  0.6053163912056281  4.3440275709487475
  0.8041330930260351  1.5428163912056281  1.2971525709487475
 -0.1333669069739649  2.7146913912056281  4.3440275709487475
  1.2728830930260351  2.4803163912056281  1.5315275709487475
  1.5072580930260351 -0.5665586087943719 -0.8122224290512525
  1.5072580930260351  1.3084413912056281 -0.5778474290512525
  1.7416330930260351  2.4803163912056281  3.4065275709487475
