 V  O 
 1.0000000000000000
     7.2317999999999998    0.0000000000000000    0.0000000000000000
    -3.8049225636281676    6.6796757447044728    0.0000000000000000
     1.8371479793919834    2.7458023555977218    6.4985618670756651
   2   2
Cartesian
  3.4731023005420076  5.2319646701583276  5.1775342107365239
  3.5108586617777715  6.9392881234153823  3.8351912714733745
  0.7362955055821475  1.8497626290119671  0.1491419948493865
  2.8077759921459111  4.8299133199951569  3.8351912714733745
