 V  O 
 1.0000000000000000
     7.0938392753192900    0.0000000000000000    0.0000000000000000
     0.2117061075597644    4.0480903441914657    0.0000000000000000
     0.5569801136772398    3.1134289289127066    0.8353743104194009
   3   6
Cartesian
  4.0875127482781473  6.1588846365520862 -0.9364795114569668
  4.5562627482781473  1.4713846365520862  2.1103954885430332
  5.0250127482781473  3.1120096365520862 -0.7021045114569668
  1.9781377482781468  4.7526346365520862  0.7041454885430332
  2.2125127482781468  1.9401346365520862  1.8760204885430332
  2.2125127482781468  4.9870096365520862  0.9385204885430332
  3.6187627482781468  1.4713846365520862 -2.5771045114569668
  4.7906377482781473  3.8151346365520862  0.7041454885430332
  6.9000127482781473  4.5182596365520862  1.6416454885430332
