 V  O 
 1.0000000000000000
     4.6466027542980264    0.0000000000000000    0.0000000000000000
    -2.4324796520612408    7.0775485087859167    0.0000000000000000
     2.7710250838015265    0.3401528675502807    2.0956996335407601
   2   7
Cartesian
  1.5811157596858232  4.1255173548347646  2.7145164834370465
  3.2217407596858232  5.7661423548347646  4.3551414834370465
  0.6436157596858232  5.2973923548347646 -0.3323585165629535
  0.8779907596858232  5.5317673548347646 -0.5667335165629535
  1.8154907596858232  1.7817673548347646 -1.2698585165629535
  2.2842407596858232  4.1255173548347646  1.5426414834370465
  3.6904907596858232  0.3755173548347646 -0.8011085165629535
  3.6904907596858232  2.2505173548347646  1.0738914834370465
  4.6279907596858232  4.1255173548347646  2.7145164834370465
