 V  O                                   
   1.00000000000000     
     4.5544645288535390   -0.1183409514921434    0.1879947747072435
    -0.9729165252164470    7.3730155065816358   -1.3045300911859543
     0.8535749861158792   -0.8996881049964098    6.6514502945115712
   V    O 
     2     3
Direct
  0.8659468394986284  0.5489814413487508  0.2580150835981939
  0.5033809692203891  0.5979336078740211  0.3495612534679111
  0.6089836131340826  0.4074676264901068  0.5418012837396639
  0.7356278817308929  0.1292910292150161  0.0940494836901276
  0.7860606964160068  0.8163262950721053  0.2565728955041036
 
  0.00000000E+00  0.00000000E+00  0.00000000E+00
  0.00000000E+00  0.00000000E+00  0.00000000E+00
  0.00000000E+00  0.00000000E+00  0.00000000E+00
  0.00000000E+00  0.00000000E+00  0.00000000E+00
  0.00000000E+00  0.00000000E+00  0.00000000E+00
