 V  O                                   
    1.000000000000000     
     3.7472574793246243   -0.4149947387966194    0.4337902229594343
    -6.8038418312004740    7.8057957081824894   -0.0330783377468187
    -1.5154621303187865   -2.8610455216271142    5.5591623340323828
   V    O 
     3     5
Direct
 -0.0453570967682473  0.6776325291350928  0.9043030942111518
 -0.1817157821814251  0.7903652095556176  0.3562546646610575
  0.5311363450159695  0.0085155828974715  0.1258312322300943
  0.5239249202681991  0.1648606540967441  0.1954766879389425
  0.1365034223965895 -0.0000864671426185 -0.2084259318549006
 -0.6125588034437480  0.3289327977746510 -0.0587649115356792
  0.2552115382717335  0.1890871445394472 -0.8347839549237553
  0.3928654564409155  0.8407025491435902 -0.4798808807269087
 
  0.00000000E+00  0.00000000E+00  0.00000000E+00
  0.00000000E+00  0.00000000E+00  0.00000000E+00
  0.00000000E+00  0.00000000E+00  0.00000000E+00
  0.00000000E+00  0.00000000E+00  0.00000000E+00
  0.00000000E+00  0.00000000E+00  0.00000000E+00
  0.00000000E+00  0.00000000E+00  0.00000000E+00
  0.00000000E+00  0.00000000E+00  0.00000000E+00
  0.00000000E+00  0.00000000E+00  0.00000000E+00
