 V  O 
 1.0000000000000000
     4.3587600000000002    0.0000000000000000    0.0000000000000000
    -8.3492789132339364    6.6715860474872954    0.0000000000000000
    -1.1456734457915119   -3.0069281582389986    5.6914927801410444
   3   5
Cartesian
 -6.8975696069580144  2.4768196483016065  5.3359452261656335
 -6.8975752472672074  3.8830991826041310  3.2266210869175609
 -1.8356889848550846  0.8362532150920760  2.9922454142313528
  1.3512763460618948  0.3675142245447963  0.6484886873692706
  1.3512011254433647  0.3675089084254541  2.5234940688589362
 -3.0075686583496761  1.0706266974552225  2.7578697415451443
 -2.5388202756661764  1.5393729976665975  2.5234940688589362
 -6.4288354964344832  4.1174733294821957  2.7578697415451443
