 V  O 
 1.0000000000000000
     5.7866212780369244    0.0000000000000000    0.0000000000000000
    -2.4706507577443184    5.0399157278377835    0.0000000000000000
    -1.7750107430754569    0.0872582621460447    4.3826137352945969
   3   1
Cartesian
 -0.7529576113914258  3.5596807449919137  5.0624006176472989
  0.4189173886085742  0.7471807449919137  0.6092756176472989
  2.0595423886085742  1.6846807449919137  0.8436506176472989
  1.3564173886085742  4.2628057449919137  2.2499006176472989
