 V  O 
 1.0000000000000000
     3.5790226638122316    0.0000000000000000    0.0000000000000000
     0.6161313641136156    4.1848352868740974    0.0000000000000000
     0.4526654758764950   -0.7268336586400341    2.8233865454049503
   2   9
Cartesian
 -0.4885902480988289  2.8795689959352133  1.5821478181570212
  3.4957847519011711  0.0670689959352133  3.4571478181570212
  0.9176597519011711  2.1764439959352133  0.6446478181570212
  0.9176597519011711  2.8795689959352133  0.8790228181570212
  0.9176597519011711  3.3483189959352133  0.8790228181570212
  2.7926597519011711  1.0045689959352133  0.4102728181570212
  3.0270347519011711  0.3014439959352133  0.1758978181570212
  3.0270347519011711  3.5826939959352133  2.5196478181570212
  3.0270347519011711  4.0514439959352133  2.9883978181570212
  3.2614097519011711 -0.6360560040647867 -0.2928521818429788
  4.6676597519011711 -0.6360560040647867  2.2852728181570212
