 V  O                                   
   1.00000000000000     
     2.9064242016249233   -0.5742345264870420   -0.4769354435680277
    -1.4973051595035436    3.5473688296296548    0.5719868101370139
    -1.5341705967921027    1.6287136597980958    3.2074799983278788
   V    O 
     1     1
Direct
  0.8988064371347044  0.4485015878963848  0.2343278114646956
  0.1011935628652957  0.5514984121036152  0.7656721885353042
 
  0.00000000E+00  0.00000000E+00  0.00000000E+00
  0.00000000E+00  0.00000000E+00  0.00000000E+00
