 V  O 
 1.0000000000000000
     5.5135100000000001    0.0000000000000000    0.0000000000000000
    -1.6993248664880289    4.5681266488283185    0.0000000000000000
    -1.5216907878380144    1.7082731515130412    3.7859406792669938
   1   1
Cartesian
  3.6054472024997373  2.3674211341714844  1.1539168596337870
 -1.3129528568257793  3.9089786661698751  2.6320238196332069
