 V  O 
 1.0000000000000000
     3.8165368328194300    0.0000000000000000    0.0000000000000000
    -0.5817826879588575    4.5533660554371584    0.0000000000000000
    -1.9130513388789510    1.4318062240933278    3.1948221194585260
   3   5
Cartesian
  0.6901482779908106  4.3402423897652431  2.2419423097292626
  1.8620232779908106 -0.5816326102347569  0.1325673097292626
  1.8620232779908106  4.8089923897652431  4.3513173097292626
 -1.8879767220091894  3.6371173897652431  1.7731923097292626
 -1.4192267220091894  4.1058673897652431  1.5388173097292626
 -0.0129767220091894  5.0433673897652431  2.0075673097292626
  1.1588982779908106  1.0589923897652431  1.5388173097292626
  3.0338982779908106  1.5277423897652431 -0.8049326902707374
