 V  O                                   
    1.000000000000000     
     6.7518446324014327    0.8290078249622468    0.4154992955012086
    -1.2452176691127341    7.3918471505993315    1.1127511858327952
    -2.7481725462458155   -1.3720601645273909    4.7540134524732425
   V    O 
     3     5
Direct
  0.0807395891627634  0.1019517242704806  0.0838911899960238
  0.9683130411048405  0.8046283859542966  0.1950849060927653
  0.5525812860548666  0.2312903144543779  0.2134981862941674
  0.8560085227208757  0.5561697376299343  0.6974452095249196
 -0.0264877000146048  0.5035513180837736  0.4679638369421912
 -0.1118899766443258 -0.3433965446553637  0.0667162976292154
  0.4435850127181961  0.4958989060647303  0.3383617619199191
 -0.7628497751026126 -0.3500938418022380  0.9370386116007909
 
  0.00000000E+00  0.00000000E+00  0.00000000E+00
  0.00000000E+00  0.00000000E+00  0.00000000E+00
  0.00000000E+00  0.00000000E+00  0.00000000E+00
  0.00000000E+00  0.00000000E+00  0.00000000E+00
  0.00000000E+00  0.00000000E+00  0.00000000E+00
  0.00000000E+00  0.00000000E+00  0.00000000E+00
  0.00000000E+00  0.00000000E+00  0.00000000E+00
  0.00000000E+00  0.00000000E+00  0.00000000E+00
