 V  O 
 1.0000000000000000
     4.6902871050119535    0.0000000000000000    0.0000000000000000
    -2.3451435525059772    6.8409951634085040    0.0000000000000000
     0.3553555684238019    0.7222850464666720    4.8070240319911894
   2   3
Cartesian
  0.1314995604648894  4.3910151049375878  4.0441370159955952
  0.6002495604648894  3.6878901049375878  4.0441370159955952
 -2.6810004395351106  2.9847651049375878  2.1691370159955952
  4.1158745604648894  2.2816401049375878  0.9972620159955952
  4.5846245604648894  5.5628901049375878  0.7628870159955952
