 V  O 
 1.0000000000000000
     3.8909458572514857    0.0000000000000000    0.0000000000000000
     0.5898172142792737    5.0159064408897596    0.0000000000000000
     0.7442521964259916    0.1022176800186938    4.7446969586720380
   3   6
Cartesian
  0.7895909673117085  2.2726037271208934  3.3358901460026846
  1.9614659673117085  2.9757287271208934 -1.1172348539973154
  3.8364659673117085  1.5694787271208934  2.3983901460026846
  1.4927159673117085  1.5694787271208934  0.0546401460026846
  1.4927159673117085  3.4444787271208934  2.3983901460026846
  1.7270909673117085  1.5694787271208934  0.5233901460026846
  4.0708409673117085  3.2101037271208934  4.0390151460026846
  4.0708409673117085  3.2101037271208934  4.5077651460026846
  4.0708409673117085  3.2101037271208934  5.2108901460026846
