 V  O 
 1.0000000000000000
     6.0329400000000000    0.0000000000000000    0.0000000000000000
    -1.5571069133660622    5.4110245825026162    0.0000000000000000
    -0.4660085034101012    1.5923640869617257    3.9731391382386829
   3   4
Cartesian
  1.7370417361471486  4.8074724111567830  3.0245124375928150
  1.9714298017860377  2.6981128200458926  0.4463821821811160
  3.8464405053748361  3.6356068173241911  3.0245124375928150
  0.0964616797743282  3.6355995002746977  3.9620143486516146
  1.9714102426205353  2.2293915780857843  2.7901369598281152
  1.9714254432435168  5.2762477633627158  0.6807576599458159
  1.9741883600810926  3.8217235059501635  3.9507703648903991
