 V  O                                   
    1.000000000000000     
     7.6894013892332005    0.5920853281198226    2.1627281080656355
     2.5143357001088860   10.7779947667194769    1.6900223307223476
     3.8011318857023131    1.7828788142909138    8.2355373050219463
   V    O 
     3     5
Direct
 -0.7722654271707531 -0.8911786715523905 -0.7685963753953640
  0.1801056982532526 -0.8553978992711789  0.4142057996595472
  0.4448466652079375  0.2498871652004623  0.5021542762194374
 -0.6882821947895588  0.5604484835356218 -0.2060070510392005
  0.5048991139450827  0.2142349671109910 -0.0211025642256894
  0.3905157876811420  0.3429931049256557 -0.0290222334995825
  0.0099391576697588  0.1060047086110172  0.7184247284322065
  0.9302411992031382  0.2730081414398282  0.3899434198486455
 
 -0.00000000E+00 -0.00000000E+00  0.00000000E+00
 -0.00000000E+00 -0.00000000E+00  0.00000000E+00
 -0.00000000E+00 -0.00000000E+00  0.00000000E+00
 -0.00000000E+00 -0.00000000E+00  0.00000000E+00
 -0.00000000E+00 -0.00000000E+00  0.00000000E+00
 -0.00000000E+00 -0.00000000E+00  0.00000000E+00
 -0.00000000E+00 -0.00000000E+00  0.00000000E+00
 -0.00000000E+00 -0.00000000E+00  0.00000000E+00
