 V  O 
 1.0000000000000000
     4.2037562797306647    0.0000000000000000    0.0000000000000000
    -0.2731938858334678    3.5421937179595697    0.0000000000000000
    -0.5866070817362838    1.5004403742188932    2.6971729741185690
   3   2
Cartesian
 -1.1405223439195433  3.1306920460892318  3.1767114870592845
  1.6719776560804567  1.9588170460892318  0.8329614870592845
  3.5469776560804567  3.5994420460892318  0.5985864870592845
  1.6719776560804567  2.8963170460892318  2.0048364870592845
  2.6094776560804567  1.0213170460892318  0.1298364870592845
