 V  O                                   
    1.000000000000000     
    10.5505229427110852   -8.9757459594762885    2.3170074111969465
    -9.7070977449608833   24.6946094055992731   -3.6651131308859530
     0.5043682535087211    2.8979320652032032    5.2978800981057930
   V    O 
     3     6
Direct
  0.3463514837039963  0.0763685146680166  0.2915355487066130
 -0.7126383107879577  0.4696294805786891 -0.3396900517407078
  0.7725844018435244 -0.0196075750398466  0.7512586782074528
  0.0169728455513103  0.1218568496425977  0.3608123859624985
 -0.1241652079967404  0.1073140605658995  0.7945420299745029
  0.6266781956407934 -0.0645928647638598  0.8526054525906165
  0.5768302329034800  0.3481065229642008  0.5436221847332365
  0.7418997701295932  0.3871644074268756  0.0431304599219528
  0.2554765890120048  0.0737606039574401  0.2021833116438492
 
  0.00000000E+00  0.00000000E+00  0.00000000E+00
  0.00000000E+00  0.00000000E+00  0.00000000E+00
  0.00000000E+00  0.00000000E+00  0.00000000E+00
  0.00000000E+00  0.00000000E+00  0.00000000E+00
  0.00000000E+00  0.00000000E+00  0.00000000E+00
  0.00000000E+00  0.00000000E+00  0.00000000E+00
  0.00000000E+00  0.00000000E+00  0.00000000E+00
  0.00000000E+00  0.00000000E+00  0.00000000E+00
  0.00000000E+00  0.00000000E+00  0.00000000E+00
