 V  O 
 1.0000000000000000
     4.6292999999999997    0.0000000000000000    0.0000000000000000
    -0.3664744569946807    4.5757278127933327    0.0000000000000000
     0.4814830841349859    1.2772778387169617    3.7632572874192896
   3   6
Cartesian
  1.5521446935182024  0.7637967511188019  1.0090045439028601
  3.2182219152780243  4.9589835773526483  2.9105031860900783
  3.4525748539396237  4.4902229773409150  3.1448788499505520
  4.5407844989159232  0.9982109585079648  1.4777558716238066
  1.3304751253220042  3.6817258253627152  3.1316321842988359
  1.5648582694411093  3.2129425109420380  3.1316321842988359
  2.9711015899885673  2.2754453391684746  1.9597538649964692
  3.4398741355873610  1.8067318102758276  0.3191242179731558
  4.3900905312755425  5.4277435204439017  3.6136301776714985
