 V  O                                   
    1.000000000000000     
    17.6878364620203179   -2.4411391111278298  -10.1017249768880166
    -3.0341675127222318   15.8518496824903590    9.1075618885253800
    -9.0458644571983697    5.6610023326165324   18.2965651889290051
   V    O 
     3     6
Direct
 -0.4980010738893777  0.7761337391851384  0.1168898232463326
  0.1312891882431743 -0.1536347430934512 -0.1172400933800260
  0.4854650337133832  0.0835815425242744  0.6676434417322723
 -0.0583895962005940  0.3905200515725337  0.3752999976820870
  0.2305323773341251  0.1286594519265892 -0.4783178948538637
  0.0739745713583279 -0.0155371629466648  0.5861537847209209
 -0.6123568646431237  0.7144354471947111  0.8175976858170265
  0.5675401527534785  0.8051074957954646  0.0777764915775000
  0.1799462113306103 -0.2292658221585794 -0.5458032365422469
 
  0.00000000E+00  0.00000000E+00  0.00000000E+00
  0.00000000E+00  0.00000000E+00  0.00000000E+00
  0.00000000E+00  0.00000000E+00  0.00000000E+00
  0.00000000E+00  0.00000000E+00  0.00000000E+00
  0.00000000E+00  0.00000000E+00  0.00000000E+00
  0.00000000E+00  0.00000000E+00  0.00000000E+00
  0.00000000E+00  0.00000000E+00  0.00000000E+00
  0.00000000E+00  0.00000000E+00  0.00000000E+00
  0.00000000E+00  0.00000000E+00  0.00000000E+00
