 V  O 
 1.0000000000000000
     3.8436804878820703    0.0000000000000000    0.0000000000000000
    -0.1272170339528093    3.8556493284842439    0.0000000000000000
    -0.0452732549788043   -0.5703144272355125    3.5004757823024972
   3   6
Cartesian
  1.5230950994752286 -0.6750408827089673  0.7346128911512491
  1.7574700994752286 -0.9094158827089673  0.5002378911512491
  3.3980950994752286 -0.6750408827089673  2.6096128911512491
  0.1168450994752286  1.4343341172910327  1.6721128911512491
  1.2887200994752286  5.4187091172910327  1.9064878911512491
  1.2887200994752286  5.4187091172910327  2.8439878911512491
  2.2262200994752286  2.6062091172910327  2.8439878911512491
  2.4605950994752286 -0.2062908827089673  0.2658628911512491
  2.4605950994752286  2.3718341172910327  2.3752378911512491
