 V  O 
 1.0000000000000000
     5.3957899999999999    0.0000000000000000    0.0000000000000000
    -0.3033374717199347    4.4661706763009583    0.0000000000000000
    -1.3162791122129398    1.5962072020522764    4.8565311454234861
   2   9
Cartesian
  2.1813016559232690  4.8766170246761158  4.2393631674630692
  2.7190915088748588  0.1760634796849736  0.4893440782128705
  4.8335852988292647  2.9885643475932935  1.1924726574472828
  0.2098925139195151  1.5692706916977799  2.1299774297598328
  0.6096982405590999  1.1135872975947931  2.1299774297598328
  0.8440622833452230  3.6917012896798180  1.6612250436035576
  1.5471718327930568  5.0979689279887408  4.0049869743849316
  2.4846462459975065  2.5198080354659327  3.3018583951505200
  2.7880190725036047  1.3348945392006544  1.8956012366816950
  3.2567678763718324  1.3349030237958028  1.6612250436035576
 -0.4019685612356339  4.1735162597012048  4.0049869743849316
