 V  O 
 1.0000000000000000
     4.3587600000000002    0.0000000000000000    0.0000000000000000
    -1.3694248314997315    3.7054147902457468    0.0000000000000000
    -2.3791435357164015   -0.5842263712524645    3.8700779932182301
   2   1
Cartesian
 -1.1011609393807662  0.4668486522534007  1.7788039480228950
 -1.2987040043159970  3.0003649921807520  0.6069056308964828
 -1.0436076071274358  1.2145689840557710  3.4194074109079668
