 V  O                                   
   1.00000000000000     
     5.0504655003296017    0.0000000000000000    0.0000000000000000
    -3.9253442088286801    8.3847456147372643    0.0000000000000000
     1.3793681557678861    0.1463476002880339    3.9191934622037903
   V    O 
     2    10
Direct
  0.6522989990498971  0.5963552233702032  0.5847192804341148
  0.9291167016960742  0.5809280741376170  0.8670971402863046
  0.8330928906926260  0.2454975042397507  0.8670971402863046
  0.8929406106647235  0.7494575436837465  0.4219451106065648
  0.0874379647835397  0.6491289687884532  0.7641248154710709
  0.0416221060360584  0.3126546157023427  0.8239266604833873
  0.5319983240506687  0.4349026375507208  0.2259082103602097
  0.9177345962993755  0.7133843292773676  0.2857100553725260
  0.5721948280849602  0.2577933039076044  0.7641248154710709
  0.5379065158675047  0.2557057375311231  0.8837285054957036
  0.0786798339937391  0.7413368767688624  0.2857100553725260
  0.9249766287808328  0.4628551850422085  0.2259082103602097
 
  0.00000000E+00  0.00000000E+00  0.00000000E+00
  0.00000000E+00  0.00000000E+00  0.00000000E+00
  0.00000000E+00  0.00000000E+00  0.00000000E+00
  0.00000000E+00  0.00000000E+00  0.00000000E+00
  0.00000000E+00  0.00000000E+00  0.00000000E+00
  0.00000000E+00  0.00000000E+00  0.00000000E+00
  0.00000000E+00  0.00000000E+00  0.00000000E+00
  0.00000000E+00  0.00000000E+00  0.00000000E+00
  0.00000000E+00  0.00000000E+00  0.00000000E+00
  0.00000000E+00  0.00000000E+00  0.00000000E+00
  0.00000000E+00  0.00000000E+00  0.00000000E+00
  0.00000000E+00  0.00000000E+00  0.00000000E+00
