 V  O 
 1.0000000000000000
     4.5341032910686829    0.0000000000000000    0.0000000000000000
    -2.5191022564295200    2.6423389320433528    0.0000000000000000
    -0.5864910266550131   -1.7291934030170482    2.9241171025528376
   1   4
Cartesian
  1.1830050039920748  0.2221977645131528  1.0870585512764190
 -1.6294949960079252  0.2221977645131528  0.3839335512764190
 -1.1607449960079252  0.2221977645131528  2.0245585512764190
 -0.6919949960079252 -1.4184272354868472  0.3839335512764190
  5.8705050039920748  3.0346977645131528  3.4308085512764190
