 V  O                                   
   1.00000000000000     
     5.7266307398920349    0.0000000000000000    0.0000000000000000
    -2.2143439180767297    3.1084778282535592    0.0000000000000000
    -0.9104290981164129    4.0124721789396247    1.9050665407324474
   V    O 
     2     4
Direct
  0.0343632180651028  0.1803990368702841  0.8532991866041471
  0.7503620445461081  0.3198630198497057  0.8690815963465894
  0.3375921506865183  0.5856235601067041  0.1151359939109753
  0.3075175986008247  0.3514194729006377  0.2381631926931718
  0.7232317857340789  0.7019447314174130  0.0236736146136565
  0.8469332023673672  0.8607501788552554  0.9006464158314600
 
  0.00000000E+00  0.00000000E+00  0.00000000E+00
  0.00000000E+00  0.00000000E+00  0.00000000E+00
  0.00000000E+00  0.00000000E+00  0.00000000E+00
  0.00000000E+00  0.00000000E+00  0.00000000E+00
  0.00000000E+00  0.00000000E+00  0.00000000E+00
  0.00000000E+00  0.00000000E+00  0.00000000E+00
