 V  O 
 1.0000000000000000
     6.9441215100260854    0.0000000000000000    0.0000000000000000
    -1.3373195899669490    3.9954960328682136    0.0000000000000000
     0.9969233719070459    2.1372199809605168    3.9639401233294529
   3   6
Cartesian
  0.0206126459830909  3.9257330069143652  3.3882200616647262
  3.5362376459830909  3.9257330069143652 -1.0649049383352738
  4.0049876459830909  2.7538580069143652  3.1538450616647262
  1.1924876459830909  0.6444830069143652  2.9194700616647262
  1.8956126459830909  5.8007330069143652  0.8100950616647262
  4.0049876459830909  2.2851080069143652  1.0444700616647262
  4.2393626459830909  3.2226080069143652  1.2788450616647262
  5.1768626459830909  1.3476080069143652  2.9194700616647262
  5.6456126459830909  3.6913580069143652  3.3882200616647262
