 V  O 
 1.0000000000000000
     3.4647153134312498    0.0000000000000000    0.0000000000000000
    -1.3833689966519909    4.1126510838937040    0.0000000000000000
    -1.6088887676202039   -0.1327723215453343    3.7836389982471910
   3   7
Cartesian
  0.9159162745795273  2.2243143811741852  2.1965069991235957
  1.8534162745795273  3.1618143811741852  2.8996319991235957
  3.4940412745795273  1.5211893811741852  2.6652569991235957
 -3.0684587254204727  0.1149393811741852  0.3215069991235957
 -0.9590837254204727  1.2868143811741852  1.9621319991235957
 -0.4903337254204727  5.5055643811741852  0.3215069991235957
 -0.2559587254204727 -1.0569356188258148  3.1340069991235957
 -0.0215837254204727  5.2711893811741852  0.0871319991235957
  0.4471662745795273  0.1149393811741852 -0.8503680008764043
  0.4471662745795273  1.7555643811741852  6.1808819991235957
