 V  O 
 1.0000000000000000
     4.6558700000000002    0.0000000000000000    0.0000000000000000
    -0.3483197548222738    5.3707767773386887    0.0000000000000000
     0.4395253685293566    0.2171046054134533    4.8745518543069579
   2   5
Cartesian
  1.8713125318578767  3.5975102963583532  0.5957677276333964
  2.7795897158109315  2.6427594060052719  4.7671654769565759
  3.5095424729845894  1.2710106947261823  0.6430996261387170
  2.1056778772912899  1.9569056118342820  4.5801289223068178
  3.0431646232761360  4.3006496393051545  3.1738694578578031
  3.7463226804716983  1.9569083645766618  2.0020271920824109
  4.2150678217847215  3.8318945345943654  1.2988730870986318
