 V  O                                   
   1.00000000000000     
     4.3390800000000000    0.0000000000000000    0.0000000000000000
    -3.1666263762969105    3.7381880814828858    0.0000000000000000
    -0.6303344306313797    2.0713553781167815    3.1754171419684845
   V    O 
     2     8
Direct
  0.9766699999999986  0.1090599999999995  0.8321400000000025
  0.6303699999999992  0.9596200000000010  0.3154800000000009
  0.2965099999999978  0.1095100000000002  0.6107099999999974
  0.3122800000000012  0.0277200000000022  0.7583300000000008
  0.4578100000000020  0.1531099999999981  0.7583300000000008
  0.9814900000000009  0.3654399999999995  0.5773900000000012
  0.8491300000000024  0.2672499999999971  0.0940500000000029
  0.0404100000000014  0.4553399999999996  0.0940500000000029
  0.7201599999999999  0.7955800000000011  0.8321400000000025
  0.7351699999999965  0.7573799999999977  0.1273800000000023
 
  0.00000000E+00  0.00000000E+00  0.00000000E+00
  0.00000000E+00  0.00000000E+00  0.00000000E+00
  0.00000000E+00  0.00000000E+00  0.00000000E+00
  0.00000000E+00  0.00000000E+00  0.00000000E+00
  0.00000000E+00  0.00000000E+00  0.00000000E+00
  0.00000000E+00  0.00000000E+00  0.00000000E+00
  0.00000000E+00  0.00000000E+00  0.00000000E+00
  0.00000000E+00  0.00000000E+00  0.00000000E+00
  0.00000000E+00  0.00000000E+00  0.00000000E+00
  0.00000000E+00  0.00000000E+00  0.00000000E+00
