 V  O                                   
   1.00000000000000     
     4.7485709311883131    0.1160822639314292    0.2765912873416169
     0.2621684199179656    4.2965967457545240   -0.3143052313986776
     0.7394688955529745    2.0676642986289631    4.1670285348165672
   V    O 
     2     3
Direct
  0.1647260338866972 -0.2021963332063388  0.0374948544671238
 -0.2809071099075745 -0.4378383978637708 -0.0538504486241251
  0.3412413145748646  0.7482257143681218  0.2560940670592476
  0.7506138052637216  0.6819167399670665  0.7175963730535628
  0.5243259561823006  0.7098822767349249  0.5426651540441838
 
  0.00000000E+00  0.00000000E+00  0.00000000E+00
  0.00000000E+00  0.00000000E+00  0.00000000E+00
  0.00000000E+00  0.00000000E+00  0.00000000E+00
  0.00000000E+00  0.00000000E+00  0.00000000E+00
  0.00000000E+00  0.00000000E+00  0.00000000E+00
