 V  O                                   
   1.00000000000000     
     3.1596616974002787   -0.0029129999570555    0.1303103527150330
     0.0596350349048518    5.1923822842884011   -1.6695270576960308
    -0.1243801433666184   -0.9288896628036677    3.0182600613012904
   V    O 
     2     2
Direct
  0.2503122698710158  0.7495245910485187  0.7484320914465329
  0.7498132400880330  0.2498911148251887  0.7503729534323255
  0.2497119882985249  0.2499032045092947  0.2512061264140681
  0.7501625017424265  0.7506810896169904  0.2499788287070775
 
  0.00000000E+00  0.00000000E+00  0.00000000E+00
  0.00000000E+00  0.00000000E+00  0.00000000E+00
  0.00000000E+00  0.00000000E+00  0.00000000E+00
  0.00000000E+00  0.00000000E+00  0.00000000E+00
