 V  O 
 1.0000000000000000
     8.0155286970335755    0.0000000000000000    0.0000000000000000
    -3.0688446474777691    4.9842324504849662    0.0000000000000000
    -1.6412363283710130    0.0748825193708758    4.3464529307215454
   3   4
Cartesian
 -1.0928118536933180  3.7349146277850647  2.4745657510750583
 -0.6240618536933180  1.6255396277850647  3.1776907510750583
  4.5321881463066820  1.6255396277850647  0.3651907510750583
  1.9540631463066820  2.0942896277850647 -0.5723092489249417
  2.1884381463066820  2.5630396277850647  3.4120657510750583
  2.1884381463066820  4.2036646277850647  1.0683157510750583
  2.4228131463066820  1.8599146277850647  5.2870657510750583
