 V  O 
 1.0000000000000000
     5.1105999999999998    0.0000000000000000    0.0000000000000000
     0.5140052250961548    3.1268645953213019    0.0000000000000000
    -0.6927659520710046    1.3390352772930374    3.4541590593682732
   3   3
Cartesian
  4.4453126111796966  0.4732807223288359  0.9458178336362206
  3.5987222954164726  1.2564015359716456  2.8208389958331002
  4.2565987530928195  1.4107824995696814  1.6489464517612262
 -0.1409507685726687  2.1266623704220025  2.7593549645763447
  2.1924621206654815  2.4282592533926888  1.1802170674049515
  5.0399164761974928  2.5754486408368615  1.0073018648929757
