 V  O                                   
   1.00000000000000     
   -75.1322581187915972  -57.2335906628180027   71.1285623199679549
    -0.6464180799857757  -66.4638674253213821   61.5616550990932510
    54.7981139213017272   90.1451466392383907  -93.6330895790571276
   V    O 
     1     4
Direct
  0.3194954690722908 -0.6106638696873838  0.6071543103488884
 -0.0686923202092495 -0.4465491868342058  0.3218798487099285
 -0.3896809332619060 -0.1426201157347037  0.0086039523542466
 -0.5158132798714413  0.4615865113296777 -0.5876607715752362
  0.1546910642702988  0.2382466609266085  0.1500226601621746
 
  0.00000000E+00  0.00000000E+00  0.00000000E+00
  0.00000000E+00  0.00000000E+00  0.00000000E+00
  0.00000000E+00  0.00000000E+00  0.00000000E+00
  0.00000000E+00  0.00000000E+00  0.00000000E+00
  0.00000000E+00  0.00000000E+00  0.00000000E+00
