 V  O                                   
   1.00000000000000     
     3.0079794848636281    0.4479969291176318    0.3652136137441936
    -0.4992118335695258    3.2213786060044418   -0.2577889855586014
     0.8926955307792966    1.9256229143746091    2.3324809487024294
   V    O 
     1     1
Direct
  0.2280444426744487  0.2313784124299574  0.5444069512251211
  0.7719555573255510  0.7686215875700426  0.4555930487748789
 
  0.00000000E+00  0.00000000E+00  0.00000000E+00
  0.00000000E+00  0.00000000E+00  0.00000000E+00
