 V  O 
 1.0000000000000000
     4.1272658575867620    0.0000000000000000    0.0000000000000000
    -1.1425577706164909    3.8224710076499315    0.0000000000000000
     0.3735481616602677    2.4303582245195803    4.0397278332295059
   1   1
Cartesian
  1.3275656243152696  2.1889146160847561  2.1370514166147530
  2.0306906243152696  4.0639146160847561  1.9026764166147530
