 V  O 
 1.0000000000000000
     5.1106007799505582    0.0000000000000000    0.0000000000000000
    -3.0302547114947420    5.4395418433444531    0.0000000000000000
    -0.6864277888373992    0.2594587215895193    4.0161284966451740
   3   6
Cartesian
 -1.6988741935241256  2.1463752824669857  2.1122309149892544
 -0.5269991935241256  4.9588752824669857 -0.4658940850107456
  2.7542508064758744  0.9745002824669857  4.4559809149892544
 -0.0582491935241256  1.2088752824669857  0.2372309149892544
  0.4105008064758744  3.0838752824669857  2.8153559149892544
  0.6448758064758744  4.2557502824669857  1.1747309149892544
  1.3480008064758744  2.1463752824669857  4.6903559149892544
  1.5823758064758744  4.7245002824669857  1.4091059149892544
  1.8167508064758744  2.1463752824669857  1.6434809149892544
