 V  O 
 1.0000000000000000
     4.5708507495549480    0.0000000000000000    0.0000000000000000
    -2.1636728878201348    3.5186425394033445    0.0000000000000000
     0.5809945388645664   -1.4616443942928756    3.0864092594707637
   2   9
Cartesian
  2.0906771093905991  3.7131581634643247  0.0304205388262915
  3.9656771093905991 -0.2712168365356753  4.2491705388262915
 -1.8936978906094009 -0.7399668365356753  1.6710455388262915
  0.4500521093905991 -0.5055918365356753  2.6085455388262915
  0.4500521093905991  2.5412831634643247  3.7804205388262915
  1.3875521093905991  4.4162831634643247  1.9054205388262915
  1.6219271093905991  1.1350331634643247 -0.2039544611737085
  1.8563021093905991  0.4319081634643247  0.2647955388262915
  1.8563021093905991  0.9006581634643247  0.2647955388262915
  2.0906771093905991  0.1975331634643247  0.9679205388262915
  2.5594271093905991 -0.5055918365356753  1.4366705388262915
