 V  O                                   
   1.00000000000000     
     7.6516822584939224   -1.4450821221672898   -0.0872839554772592
    -3.5659009639365187    5.9843738058957818    0.9944551545085016
    -0.9723796736625248    4.0453325560247437    3.3402732738759728
   V    O 
     3     3
Direct
  0.5420499084256629  0.4622074685177744  0.5556474883628369
  0.9210864786667253  0.8623069943925522 -0.0172394236785496
 -0.5279330341688904 -0.7090663093770193  0.1127966690331807
  0.2787372921880200  0.2006108390744509  0.8703903995515331
  0.4214480934053523 -0.1539272494904061  0.1742034488376667
  0.3646112614831380 -0.6621317431173434  0.3042014178933254
 
  0.00000000E+00  0.00000000E+00  0.00000000E+00
  0.00000000E+00  0.00000000E+00  0.00000000E+00
  0.00000000E+00  0.00000000E+00  0.00000000E+00
  0.00000000E+00  0.00000000E+00  0.00000000E+00
  0.00000000E+00  0.00000000E+00  0.00000000E+00
  0.00000000E+00  0.00000000E+00  0.00000000E+00
