 V  O 
 1.0000000000000000
     5.1482599999999996    0.0000000000000000    0.0000000000000000
    -0.3695075426209670    4.2117220451908048    0.0000000000000000
    -0.6951769326646182    0.9191540110487086    3.2319709157670471
   3   4
Cartesian
  2.8465839376638882  0.7309357694657950  0.4441051235355499
  3.0371353252878062  4.4852462572048726  1.1965079527261184
  0.0420511082153083  1.9028184063519002  0.9128701851584023
  2.0995426991162440  3.2950321505779572  0.4441051235355499
  4.4432895701613910  4.2325338717110963  0.2097225927241237
  2.7114393746813690  3.5364084284180448  1.6159854578835235
  0.1333770784520387  2.1484961446619080  0.0246276183781449
