 V  O                                   
   1.00000000000000     
    17.4798070928721074    7.2218481164258712   -0.3056410654182755
     2.4338046809717824   10.7960659378760404   -1.2257164438496095
    -9.3461680548191843   -5.5401718039405550    7.1834473226482656
   V    O 
     2     7
Direct
  0.5516890228006104  0.0112522171720502  0.7504326882527302
 -0.2255840340910984 -0.0969837297330927 -0.1620551967807917
  0.4527416233320764  0.2447420930423586  0.9538162564945394
  0.7024750801735322  0.7815744822773629  0.7843455679345371
  0.4984261594869737  0.6639234723343659 -0.3560507499966459
 -0.7371292316197664 -0.4062488723665494  0.3094175800760460
  0.0081726829716425  0.6336406229594564  0.8462849836360933
  0.8602880207403043  0.8629693043957789  0.1039147919118915
  0.3889206762057315  0.8051204099182727  0.2698940784716071
 
  0.00000000E+00  0.00000000E+00  0.00000000E+00
  0.00000000E+00  0.00000000E+00  0.00000000E+00
  0.00000000E+00  0.00000000E+00  0.00000000E+00
  0.00000000E+00  0.00000000E+00  0.00000000E+00
  0.00000000E+00  0.00000000E+00  0.00000000E+00
  0.00000000E+00  0.00000000E+00  0.00000000E+00
  0.00000000E+00  0.00000000E+00  0.00000000E+00
  0.00000000E+00  0.00000000E+00  0.00000000E+00
  0.00000000E+00  0.00000000E+00  0.00000000E+00
