 V  O                                   
   1.00000000000000     
     5.2081689187783633   -0.9436279718848541    0.3609229197041449
     0.6879909982489175   10.6893066084748867    5.9623853193905942
     0.6482756290312851    5.2275043299967301   20.3573230377718204
   V    O 
     2     6
Direct
  0.2149975297714254  0.0631460402953216  0.3631393956698374
  0.2022747974118231 -0.3784051941672089  0.4352516819715634
  0.9886607280566352  0.2099692369913470  0.5552838911258010
  0.2223884231934908  0.2722370879562841  0.1361550421043428
  0.0103699115101062  0.0626893882519559 -0.5880170615147762
  0.5283336333860622  0.8814189237186361  0.5294427324766492
  0.4416594599258012 -0.6074965476532677 -0.7684710961597150
 -0.6086844832553513  0.4964510646069284  0.3372054143263007
 
  0.00000000E+00  0.00000000E+00  0.00000000E+00
  0.00000000E+00  0.00000000E+00  0.00000000E+00
  0.00000000E+00  0.00000000E+00  0.00000000E+00
  0.00000000E+00  0.00000000E+00  0.00000000E+00
  0.00000000E+00  0.00000000E+00  0.00000000E+00
  0.00000000E+00  0.00000000E+00  0.00000000E+00
  0.00000000E+00  0.00000000E+00  0.00000000E+00
  0.00000000E+00  0.00000000E+00  0.00000000E+00
