 V  O 
 1.0000000000000000
     5.3436899999999996    0.0000000000000000    0.0000000000000000
    -2.5278148512176695    8.9480087886670834    0.0000000000000000
    -2.2634035730054722    5.3051895928276940    7.7218434903757780
   1   1
Cartesian
  1.7996486853201552  5.8375481823122293  5.9702977314538401
 -1.2471771095432973  8.4156501991825490  1.7515457589219376
