 V  O                                   
   1.00000000000000     
    -0.2114789298569537   13.2475536607915796   15.1150892865630446
    -7.2502639061572669   35.6246419261327887   17.7325155572386208
    -3.8329724378892021   29.2604595906196749   29.7630497682076935
   V    O 
     1     4
Direct
  0.5764544649224292  0.6754256433411310  0.9802004631328436
 -0.0600012792417874 -0.6738913183694248 -0.4051824639504514
  0.3995191645017393 -0.0509263216526732  0.9236598051480515
  0.7873260693902109  0.1428315942064455  0.8857963656226339
  0.7967015804274071  0.4065604024745216  0.1155358300469183
 
  0.00000000E+00  0.00000000E+00  0.00000000E+00
  0.00000000E+00  0.00000000E+00  0.00000000E+00
  0.00000000E+00  0.00000000E+00  0.00000000E+00
  0.00000000E+00  0.00000000E+00  0.00000000E+00
  0.00000000E+00  0.00000000E+00  0.00000000E+00
