 V  O                                   
    1.000000000000000     
    39.7101225001669675    2.7962782846466965    4.1878854407359363
    -0.4935287063561025    8.1976985460314733    1.6055893897483300
     2.5141942564412227    7.3970221515351220   13.4640288788254558
   V    O 
     3     5
Direct
  0.5732223235902250  0.5845213641920145  0.5732273087198675
  0.1989960147083862 -0.3525997296499393  0.0845272186743700
 -0.0888776136876369  0.1595322803271958  0.8068638172612929
 -0.8249408836145542  0.6546017099493752 -0.2682079904011935
 -0.0085547472407384 -0.8278799281251596  0.8901675323199072
  0.9137482556327164  0.0649762110910956 -0.7023802875340192
 -0.8425614160497941  0.5267872323775526  0.5216498420014554
  0.0789680666613982  0.1900608598378635  0.0941525589583285
 
  0.00000000E+00  0.00000000E+00  0.00000000E+00
  0.00000000E+00  0.00000000E+00  0.00000000E+00
  0.00000000E+00  0.00000000E+00  0.00000000E+00
  0.00000000E+00  0.00000000E+00  0.00000000E+00
  0.00000000E+00  0.00000000E+00  0.00000000E+00
  0.00000000E+00  0.00000000E+00  0.00000000E+00
  0.00000000E+00  0.00000000E+00  0.00000000E+00
  0.00000000E+00  0.00000000E+00  0.00000000E+00
