 V  O 
 1.0000000000000000
     4.4494777493754816    0.0000000000000000    0.0000000000000000
    -0.3544667326553359    4.2484943113490985    0.0000000000000000
    -0.2312568721619248    3.1732194516557377    2.7452722011302182
   3   5
Cartesian
  3.5432051972791108  5.3221850065024183  5.1519329755651091
  4.9494551972791108  6.4940600065024183  1.1675579755651091
  5.1838301972791108  2.5096850065024183  2.3394329755651091
 -0.4411698027208892  2.0409350065024183  0.4644329755651091
 -0.4411698027208892  2.0409350065024183  1.1675579755651091
  0.2619551972791108  2.0409350065024183  0.6988079755651091
  0.9650801972791108  4.6190600065024183 -0.0043170244348909
  1.4338301972791108  4.6190600065024183 -0.0043170244348909
