 V  O                                   
   1.00000000000000     
     7.2462065955266519    0.3596825797087252   -0.2575678419049316
     2.4249720026204167    5.4610123024100909    0.2295243612611880
    -1.4488632372043031    3.7632232323311636    3.9421039934556172
   V    O 
     1     4
Direct
  0.7494663543351890  0.2622610498706694 -0.0151606166792006
  0.4969031068279113  0.2457295151069104  0.6045323523984160
  0.3180864695430477  0.6368850276303748  0.7506782969187022
  0.3004577293782324  0.4136240257363252  0.6048020761791500
  0.6350763399156163 -0.0584996183442800  0.5551478911829325
 
  0.00000000E+00  0.00000000E+00  0.00000000E+00
  0.00000000E+00  0.00000000E+00  0.00000000E+00
  0.00000000E+00  0.00000000E+00  0.00000000E+00
  0.00000000E+00  0.00000000E+00  0.00000000E+00
  0.00000000E+00  0.00000000E+00  0.00000000E+00
