 V  O 
 1.0000000000000000
     6.0329438117022320    0.0000000000000000    0.0000000000000000
    -1.0137992381066161    3.6850029621937814    0.0000000000000000
    -3.1518019489652129   -1.0182192174572589    4.6082328201491531
   1   2
Cartesian
 -0.5507036876847984 -1.3228581276317382  3.0853664100745766
  1.5586713123152016  2.6615168723682618  1.6791164100745766
  1.7930463123152016  2.6615168723682618  2.1478664100745766
