 V  O 
 1.0000000000000000
     4.9753701377699029    0.0000000000000000    0.0000000000000000
    -3.9381475875811738    6.6020082058514573    0.0000000000000000
    -4.8242332457710075   -3.7259997245696654    4.3019362276731874
   3   7
Cartesian
 -2.2216303477911392  1.7895667406408959  3.6744056138365941
 -1.2841303477911392  4.1333167406408959  4.3775306138365941
 -0.8153803477911392  3.8989417406408959  4.1431556138365941
 -10.6591303477911392  0.6176917406408959  3.9087806138365941
 -1.9872553477911392  2.0239417406408959  0.6275306138365941
 -1.5185053477911392  2.2583167406408959  0.6275306138365941
 -1.5185053477911392  2.2583167406408959  1.0962806138365941
 -0.3466303477911392  0.3833167406408959  0.1587806138365941
  0.5908696522088608 -1.4916832593591041  1.0962806138365941
  0.8252446522088608 -1.4916832593591041  1.7994056138365941
