 V  O                                   
   1.00000000000000     
    12.5948969410345892   -2.0528659212873022   -2.7657268574517659
    -3.5520998937397756    7.4069346859767045    1.1513577140181710
    -2.7895192683814249    0.7094342621576946    6.6055889394143144
   V    O 
     2     7
Direct
  0.1682770202285935  0.0001175282369164  0.1345316498179629
  0.6739393006921867  0.0378292997569757 -0.0400169969900277
 -0.8726700618253078 -0.3994115087933505  0.2428178623382843
  0.0988265092132950 -0.1177546480821118  0.7288408544932974
  0.2686752169311978 -0.4451828714277698 -0.8710796769813635
 -0.2300722195527321  0.9191610898285726  0.9744715077003530
  0.1149870473591292  0.1000331302597599  0.9024413027090108
  0.1212546717131442  0.0143084919814829  0.0967319943432762
  0.1567825152404937  0.3908994882395250  0.3312615025692069
 
  0.00000000E+00  0.00000000E+00  0.00000000E+00
  0.00000000E+00  0.00000000E+00  0.00000000E+00
  0.00000000E+00  0.00000000E+00  0.00000000E+00
  0.00000000E+00  0.00000000E+00  0.00000000E+00
  0.00000000E+00  0.00000000E+00  0.00000000E+00
  0.00000000E+00  0.00000000E+00  0.00000000E+00
  0.00000000E+00  0.00000000E+00  0.00000000E+00
  0.00000000E+00  0.00000000E+00  0.00000000E+00
  0.00000000E+00  0.00000000E+00  0.00000000E+00
