 V  O                                   
   1.00000000000000     
     3.8770436526057610   -0.4969716426311577   -1.2229404416349614
    -0.3060303908484961    3.7789451740742361   -0.2129697405700821
    -1.4014343788865968    0.3783657421764450    2.5969055533007896
   V    O 
     1     1
Direct
  0.7602824744979395  0.0213147077094911  0.5124254095566330
  0.2397175255020671  0.9786852922905085  0.4875745904433672
 
  0.00000000E+00  0.00000000E+00  0.00000000E+00
  0.00000000E+00  0.00000000E+00  0.00000000E+00
