 V  O 
 1.0000000000000000
     3.9674100000000001    0.0000000000000000    0.0000000000000000
     0.3229720037124433    4.6180198759661018    0.0000000000000000
     0.1851030375118088    0.7571998911020276    4.8112234693494527
   1   1
Cartesian
  3.3926713166892259  0.8125989713085809  2.9915706410067959
  1.0828137245350267  4.5626207957595488  1.8196528283426565
