 V  O 
 1.0000000000000000
     5.6129199999999999    0.0000000000000000    0.0000000000000000
    -0.5796169758987794    3.3786835310294978    0.0000000000000000
    -0.2635605948275002    1.0758375572412529    3.8155568466061869
   3   1
Cartesian
  5.1853075045167492  0.8210188718218830  2.3179507843132585
  2.1504897310291553  1.0553685148120886  1.3804303115336523
  4.4942620389812333  1.7585194150839827  3.0210434444373804
  3.9019625599190806  1.8954518437940491  0.9116891529280824
