 V  O                                   
   1.00000000000000     
     3.9729766262454906    0.5143787240200147   -0.0184839296370926
    -0.4498124770954040    3.3120089841055242    0.0272301431263388
    -1.7535037482328388   -1.6166862640378521    5.1286592399935502
   V    O 
     1     4
Direct
  0.1740182287518622  0.2594334975442057  0.2245841167534751
  0.2400323764429919  0.8389762119671207  0.3670408294937142
  0.5538532818152256  0.0612728761457025  0.8805565502215735
  0.9035142330532868  0.0647392626513699  0.8723790800011157
  0.6285818799366332  0.2755781516916014  0.1554494235301100
 
  0.00000000E+00  0.00000000E+00  0.00000000E+00
  0.00000000E+00  0.00000000E+00  0.00000000E+00
  0.00000000E+00  0.00000000E+00  0.00000000E+00
  0.00000000E+00  0.00000000E+00  0.00000000E+00
  0.00000000E+00  0.00000000E+00  0.00000000E+00
