 V  O                                   
   1.00000000000000     
    18.4411584692948018   12.3418898126943457   12.6129635341752042
    -3.2609936729240667    3.1812594959870046    0.0794720657763534
     2.1411478643708270    4.6495946311875800    8.1796005559636864
   V    O 
     1     4
Direct
  0.7194780384525539  0.8447086261667832  0.7985794724328160
  0.6058297720578530 -0.1899823392418414 -0.3889629042230830
 -0.2390958681700753  0.1678291818027486  0.2319642561751183
  0.1429761321123430  0.0432276542066095  0.9135877554608534
  0.2708119255473261  0.6342168770657077  0.9448314201543063
 
  0.00000000E+00  0.00000000E+00  0.00000000E+00
  0.00000000E+00  0.00000000E+00  0.00000000E+00
  0.00000000E+00  0.00000000E+00  0.00000000E+00
  0.00000000E+00  0.00000000E+00  0.00000000E+00
  0.00000000E+00  0.00000000E+00  0.00000000E+00
