 V  O                                   
    1.000000000000000     
     2.4413638654681975    1.1798729322820851    0.4715989210718138
     1.6140386495656691    1.7136908031250879    1.2095616967052993
     2.3357549331894094   -0.1652886116606867    9.6084791984111373
   V    O 
     3     7
Direct
 -0.7673337979329493  0.5413931865842341 -0.7269482063928481
  0.6918221280390584  0.3157249278950786 -0.2645027199596373
  0.1080363920683189  0.8727879012276361  0.9214735010117823
  0.4094028433963901 -0.1118146057287539  0.2194324044381295
 -0.0179301510306118  0.3110555295842007 -0.2376363071643244
 -0.1960529993760134  0.5146263706083336 -0.8867076353215522
 -0.4008550636063148  0.9038962376856490 -0.8479857750248563
  0.3421932339599323 -0.0555321661674273  0.1998517837978788
 -0.0763191284117245 -0.9534242701559275 -0.1966555433933634
 -0.0929734571060843  0.6612868884669690  0.8196784980087812
 
  0.00000000E+00  0.00000000E+00  0.00000000E+00
  0.00000000E+00  0.00000000E+00  0.00000000E+00
  0.00000000E+00  0.00000000E+00  0.00000000E+00
  0.00000000E+00  0.00000000E+00  0.00000000E+00
  0.00000000E+00  0.00000000E+00  0.00000000E+00
  0.00000000E+00  0.00000000E+00  0.00000000E+00
  0.00000000E+00  0.00000000E+00  0.00000000E+00
  0.00000000E+00  0.00000000E+00  0.00000000E+00
  0.00000000E+00  0.00000000E+00  0.00000000E+00
  0.00000000E+00  0.00000000E+00  0.00000000E+00
