 V  O                                   
   1.00000000000000     
     4.3564729515841520   -1.1521219700355425   -0.3568375403375342
    -1.6432717068873277    2.7261639244796041   -0.0781957264974706
    -0.8142407963474135    0.3288964725198945    4.8070432727660517
   V    O 
     1     2
Direct
 -0.0007523850622115  0.8347765673896871  0.8320602685602196
  0.5701560658503428  0.3661640582799184  0.0274618975270847
  0.9305863192118663  0.2990493743303913  0.6404778339126954
 
  0.00000000E+00  0.00000000E+00  0.00000000E+00
  0.00000000E+00  0.00000000E+00  0.00000000E+00
  0.00000000E+00  0.00000000E+00  0.00000000E+00
