 V  O                                   
   1.00000000000000     
     5.2472834019252295   -0.0055831624597495    0.0085337852917679
     0.0297736953146887    8.1497501858495625    0.0933964444988226
    -1.2038174100124195    0.3246508564144638    6.0453530747154742
   V    O 
     1     1
Direct
  0.1638444163506559  0.2472030103705435  0.9813378492301172
  0.8361555836493439  0.7527969896294566  0.0186621507698825
 
  0.00000000E+00  0.00000000E+00  0.00000000E+00
  0.00000000E+00  0.00000000E+00  0.00000000E+00
