 V  O 
 1.0000000000000000
     4.3056491679899445    0.0000000000000000    0.0000000000000000
     0.0332135872371212    8.2544648944936707    0.0000000000000000
    -0.9955851463241201    0.2705971857445247    4.9699834888544574
   1   1
Cartesian
  0.7341388044514723  2.0359685401190974 -0.0931332555727717
  2.6091388044514723  6.4890935401190974  5.0631167444272283
