 V  O                                   
   1.00000000000000     
     3.1593002683535709    0.3378561518683771   -0.3549075940795899
    -0.3171611507736146    2.7585921596562910   -0.2542378420898422
    -0.3449664889674992   -0.6782790987172244    3.9199618381017802
   V    O 
     1     1
Direct
  0.2703317197726822  0.7433619053832794  0.0145238465043579
  0.7296682802273181  0.2566380946167210  0.9854761534956420
 
  0.00000000E+00  0.00000000E+00  0.00000000E+00
  0.00000000E+00  0.00000000E+00  0.00000000E+00
