 V  O 
 1.0000000000000000
     3.5192383105830367    0.0000000000000000    0.0000000000000000
    -0.6576196311575926    3.5555962506485290    0.0000000000000000
     0.1134706471913005   -0.3239543426877177    3.4825136453551560
   1   1
Cartesian
  0.7844196633083724  2.4361334539804052  0.2178193226775775
  2.1906696633083724  0.7955084539804052  3.2646943226775775
