 V  O 
 1.0000000000000000
     5.0112763203973296    0.0000000000000000    0.0000000000000000
    -1.0341939749140383    2.6943134622515856    0.0000000000000000
    -0.9169365920773876    1.1858265669234740    2.8950247379249521
   2   3
Cartesian
  3.9675728767029517  3.0650700145875298 -0.0056126310375237
  3.9675728767029517  3.2994450145875298  0.4631373689624763
 -5.1730521232970483 -4.4349299854124702  6.5568873689624763
  2.3269478767029517  4.2369450145875298  1.6350123689624763
  2.5613228767029517  3.5338200145875298 -1.4118626310375237
