 V  O                                   
    1.000000000000000     
     5.7512118403102326    1.0130743410065350    1.0221850120042653
    -4.9523455720464522    8.7530636675463214   -1.0567546896657818
     8.3828148743554323    5.5176689068422382   10.2907787478866499
   V    O 
     3     6
Direct
  0.3161365479654963  0.6644793749601230  0.6512321066327875
  0.2361603113802616  0.4008783032400726  0.5362077035559863
  0.6544215469037304  0.4989806245464689  0.6195424662025699
  0.8810754936896046  0.5034711796845098  0.6708584023247500
  0.1924454894566792  0.4282101752471031  0.4189457521238378
  0.5085937461739635  0.5431687763621632  0.5500523586438663
  0.9690062124784188  0.6295565046501341  0.2982200043766279
  0.5291210548938727  0.3389098521349491  0.4265730336531057
  0.2130395970579591  0.4923452091744696  0.3283681724864687
 
  0.00000000E+00  0.00000000E+00  0.00000000E+00
  0.00000000E+00  0.00000000E+00  0.00000000E+00
  0.00000000E+00  0.00000000E+00  0.00000000E+00
  0.00000000E+00  0.00000000E+00  0.00000000E+00
  0.00000000E+00  0.00000000E+00  0.00000000E+00
  0.00000000E+00  0.00000000E+00  0.00000000E+00
  0.00000000E+00  0.00000000E+00  0.00000000E+00
  0.00000000E+00  0.00000000E+00  0.00000000E+00
  0.00000000E+00  0.00000000E+00  0.00000000E+00
