 V  O 
 1.0000000000000000
     3.8577475186912831    0.0000000000000000    0.0000000000000000
     1.5887854344242021    4.7527519609944404    0.0000000000000000
     0.5453174990875433   -0.0686219855306756    3.3176887482144881
   2   3
Cartesian
  3.4646752261015141  1.7326899877318822  2.5025943741072441
  3.4646752261015141  1.7326899877318822  3.2057193741072441
  1.8240502261015141  1.2639399877318822 -1.4817806258927559
  2.9959252261015141  6.4201899877318827  1.0963443741072441
  3.2303002261015141  0.5608149877318822  2.9713443741072441
