 V  O                                   
    1.000000000000000     
    16.2144828277081530    0.8772969138919589    5.3529737575455885
     0.4529449756140370    7.7832253294157425    0.7505860701656326
     2.8222780171742792    5.8972973328985061    7.9388009874299819
   V    O 
     3     6
Direct
  0.5549344221301804  0.3432271975281750  0.7181109172560242
  0.6569561366579196  0.4868022680095295  0.5496367077945850
  0.0169641718239135 -0.2956247197442156  0.0743182163999954
  0.3464786811793641  0.0854774049331821  0.5356322505254856
 -0.3183205732031527 -0.0297106379450546  0.1886648749290304
  0.8888864112024238  0.2085696751023064  0.5217740710447297
 -0.0591017836652069 -0.0869101530335573 -0.0318717632261714
  0.3418201315207942 -0.2054560454063018 -0.7252013908927818
  0.0713824023537642 -0.0063749894440712 -0.3310638838309035
 
  0.00000000E+00  0.00000000E+00 -0.00000000E+00
  0.00000000E+00  0.00000000E+00 -0.00000000E+00
  0.00000000E+00  0.00000000E+00 -0.00000000E+00
  0.00000000E+00  0.00000000E+00 -0.00000000E+00
  0.00000000E+00  0.00000000E+00 -0.00000000E+00
  0.00000000E+00  0.00000000E+00 -0.00000000E+00
  0.00000000E+00  0.00000000E+00 -0.00000000E+00
  0.00000000E+00  0.00000000E+00 -0.00000000E+00
  0.00000000E+00  0.00000000E+00 -0.00000000E+00
