 V  O 
 1.0000000000000000
     5.0701208481691111    0.0000000000000000    0.0000000000000000
    -1.5357604224390302    3.6771802225136567    0.0000000000000000
    -1.2284120626093751   -0.4481986279126240    4.2414706967681814
   2   7
Cartesian
 -0.1491091517729801  4.7134491306338493  4.0478186817174233
  3.3665158482270199  1.1978241306338493  1.7040686817174233
 -0.3834841517729801  1.1978241306338493  0.5321936817174233
 -0.3834841517729801  1.1978241306338493  2.4071936817174233
  0.5540158482270199  3.0728241306338493  0.2978186817174233
  1.7258908482270199  0.4946991306338493  1.9384436817174233
  1.7258908482270199  2.3696991306338493  4.0478186817174233
  1.9602658482270199 -0.2084258693661507  4.0478186817174233
  1.9602658482270199  0.4946991306338493  0.0634436817174233
