 V  O                                   
   1.00000000000000     
     5.6482178318777541   -0.7848953641125445    0.4615274557189097
    -3.8455009561798490    3.4122240764095939   -0.9641452961571298
    -1.8180135062770617   -1.0962578613206466    2.8605073216091794
   V    O 
     2     1
Direct
  0.0588217836798151 -0.0198326856009055  0.3550102729669076
  0.4680101877790994  0.8265501279260093  0.3088138300014102
 -0.0268319714589148  0.6932825576748958  0.8361758970316823
 
  0.00000000E+00  0.00000000E+00  0.00000000E+00
  0.00000000E+00  0.00000000E+00  0.00000000E+00
  0.00000000E+00  0.00000000E+00  0.00000000E+00
