 V  O 
 1.0000000000000000
     5.8304477536721642    0.0000000000000000    0.0000000000000000
    -2.6701709539532072    4.9173773129280791    0.0000000000000000
    -2.0688133761017586   -0.1485418928979733    4.0244208431126127
   3   5
Cartesian
 -0.5675495381914004  0.9195739600150530  5.9672885465563059
  0.1355754618085996  2.7945739600150530 -4.3452114534436941
  0.8387004618085996  3.0289489600150530 -1.7670864534436941
 -0.5675495381914004  4.2008239600150530  4.0922885465563059
 -0.3331745381914004  4.4351989600150530  4.5610385465563059
  0.8387004618085996  1.3883239600150530  5.9672885465563059
  1.7762004618085996 -1.4241760399849470  0.1079135465563059
  2.2449504618085996  3.7320739600150530  1.5141635465563059
