 V  O                                   
   1.00000000000000     
    73.9436509946289959   -6.0814323033452817    0.1134697009452928
    -4.1576457612983235   16.5698682333426000  -12.9302590105304880
    -5.1787288453356703  -12.2388579211801378   23.4951601220316810
   V    O 
     2     3
Direct
  0.6922907683943177  0.6309611463384371 -0.5399996884415039
  0.6240467842932167  0.4737509936264813 -0.1760054519257152
 -0.0841819160457301 -0.6070400180735807  0.9575197481762505
 -0.3320122039894551  0.3747918025956420 -0.5522457825230058
  0.5998565673476504 -0.3724639244869872  0.8107311747139689
 
  0.00000000E+00  0.00000000E+00  0.00000000E+00
  0.00000000E+00  0.00000000E+00  0.00000000E+00
  0.00000000E+00  0.00000000E+00  0.00000000E+00
  0.00000000E+00  0.00000000E+00  0.00000000E+00
  0.00000000E+00  0.00000000E+00  0.00000000E+00
