 V  O                                   
   1.00000000000000     
    14.6260285910992920    3.9931471402735421    5.4163351755063793
    -5.1040724144444534    5.1775496680848256   -0.4647197868394410
    -0.6537525981188836    1.3539074488416087    6.5572984219272268
   V    O 
     2     4
Direct
  0.4945763146309911  0.4503274623814025 -0.4390719664690469
  0.1111644718584125  0.0862473434955651  0.0214660854497537
 -0.2733336091576626 -0.2560496688007130 -0.3007055994407421
 -0.2326928515197778 -0.2895948791968381  0.2211902365768744
  0.6478612044866190  0.6662179313048753  0.2911666828112243
  0.2524244697014106  0.3428518108157154  0.2059545610719361
 
  0.00000000E+00  0.00000000E+00  0.00000000E+00
  0.00000000E+00  0.00000000E+00  0.00000000E+00
  0.00000000E+00  0.00000000E+00  0.00000000E+00
  0.00000000E+00  0.00000000E+00  0.00000000E+00
  0.00000000E+00  0.00000000E+00  0.00000000E+00
  0.00000000E+00  0.00000000E+00  0.00000000E+00
