 V  O 
 1.0000000000000000
     6.8855740824085210    0.0000000000000000    0.0000000000000000
    -1.1325850832312607    2.6760347730542353    0.0000000000000000
    -0.2795195206836820    2.4486686895260115    1.7146870911977634
   3   5
Cartesian
 -0.6031090107532107  1.9764142312901232  4.5780466705988818
  1.5062659892467893 -0.1329607687098768  3.1717966705988818
  4.3187659892467893  4.7889142312901232 -2.4532033294011182
  1.2718909892467893  4.3201642312901232  1.0624216705988818
  2.9125159892467893  0.5701642312901232 -0.8125783294011182
  3.6156409892467893  3.6170392312901232 -0.1094533294011182
  3.8500159892467893  3.3826642312901232  0.1249216705988818
  5.0218909892467893  1.9764142312901232  1.2967966705988818
