 V  O                                   
   1.00000000000000     
     2.9891444092719808    0.4207130266285288    0.6335982145502277
     0.9010159986488566    5.0595152008264108   -0.4042385463746321
     0.8472518788778363    1.0320687965677986    2.7646488404694813
   V    O 
     2     1
Direct
  0.4251856065160141  0.7613220229712888  0.4005254928445939
  0.9085567166472003  0.2388352380940633  0.9319988506448321
  0.1662576768367853  0.4998427389346476  0.1674756565105739
 
  0.00000000E+00  0.00000000E+00  0.00000000E+00
  0.00000000E+00  0.00000000E+00  0.00000000E+00
  0.00000000E+00  0.00000000E+00  0.00000000E+00
