 V  O 
 1.0000000000000000
     5.9886600000000003    0.0000000000000000    0.0000000000000000
    -0.4492617111981956    3.6720291751225598    0.0000000000000000
     2.6041592395571813    1.3880181843002442    2.9194705621363637
   2   8
Cartesian
  2.0132008929283622  0.8267239111453749  0.4987915455409977
  5.3139510391017319  2.8581526548103904  1.2019168357259196
  3.6733332149420175  1.9206451475796806  2.8425425128240707
  3.6733190891188903  4.0300168235333711  2.1394172226391484
  4.3569885133208821  1.2954904066084618  0.0300413520843832
  4.1421033568118784  1.6862547762985487  2.3737923193674559
  4.3764698226490291  4.2644071948145026  2.6081674160957631
  4.1615921573960204  3.2489299996269332  1.2019168357259196
  4.1615837452384552  3.2489187630306464  1.9050421259108417
  7.4493574592771665  3.3086508233109164  2.7151368174924397
