 V  O                                   
   1.00000000000000     
    18.8831360604998331    2.1082136342243012   -5.7581475825651678
    -3.5091403380831387   14.1411249584994501   -5.0143130285404576
   -14.0683407252553039  -14.0302162493783449   19.1310308363692307
   V    O 
     2     9
Direct
 -0.4831730278501861  0.4562927227145837 -0.7247750585493191
  0.8154858342461337 -0.2279784037454749  0.4674371740706120
  0.2341766465594853  0.2738744130409658  0.4438957754644443
 -0.3929032964513652  0.5854729383962232 -0.1735922105639563
  0.3719688793780147  0.3353689210178866  0.5769231920870457
  0.5975225623439377  0.2398198979462305  0.3074668369256687
  0.7377597212605037  0.7244643615011632  0.1632588986732806
  0.8959104011589055  0.5803362884909712  0.1673641726842665
  0.7922800152818560 -0.5353100242366209  0.3029531693757443
 -0.4289589690702906 -0.8987421574180744  0.8664415960906811
  0.3599312331430006  0.9664010422921498 -0.8973735462584840
 
  0.00000000E+00  0.00000000E+00  0.00000000E+00
  0.00000000E+00  0.00000000E+00  0.00000000E+00
  0.00000000E+00  0.00000000E+00  0.00000000E+00
  0.00000000E+00  0.00000000E+00  0.00000000E+00
  0.00000000E+00  0.00000000E+00  0.00000000E+00
  0.00000000E+00  0.00000000E+00  0.00000000E+00
  0.00000000E+00  0.00000000E+00  0.00000000E+00
  0.00000000E+00  0.00000000E+00  0.00000000E+00
  0.00000000E+00  0.00000000E+00  0.00000000E+00
  0.00000000E+00  0.00000000E+00  0.00000000E+00
  0.00000000E+00  0.00000000E+00  0.00000000E+00
