 V  O                                   
   1.00000000000000     
    18.3804697696623265    1.3795245941306957    5.7153020529660967
     0.3354614322300687    6.8726069799533356    0.8029522110389847
    -5.0105455842166782    2.1672136341410058   20.2324940050203317
   V    O 
     3     3
Direct
 -0.6221936340022135  0.1048033908513892 -0.6946685680504241
 -0.0371294887863077  0.3610546418570043 -0.3438983009778076
  0.6214603504453348 -0.2996281917217548  0.3922985917443694
  0.2239933201333492  0.9287407684948751  0.3280204436603028
  0.5541763309320588 -0.9865793928391753  0.9248089764620054
  0.2596931212777858  0.8916087833576620  0.3934388571615545
 
  0.00000000E+00  0.00000000E+00  0.00000000E+00
  0.00000000E+00  0.00000000E+00  0.00000000E+00
  0.00000000E+00  0.00000000E+00  0.00000000E+00
  0.00000000E+00  0.00000000E+00  0.00000000E+00
  0.00000000E+00  0.00000000E+00  0.00000000E+00
  0.00000000E+00  0.00000000E+00  0.00000000E+00
