 V  O 
 1.0000000000000000
     3.7190340358964522    0.0000000000000000    0.0000000000000000
    -0.2589483236386284    4.3545322357570440    0.0000000000000000
    -2.4999539589013291    1.1582404524828804    4.4998702020981476
   3   3
Cartesian
 -2.4496216233217520  2.9907613441199619  3.8514976010490738
  1.3003783766782480  2.0532613441199619  0.8046226010490738
  1.7691283766782480  2.0532613441199619  1.0389976010490738
 -3.8558716233217520  4.6313863441199619  1.5077476010490738
  1.0660033766782480  1.5845113441199619  1.7421226010490738
  5.0503783766782480  3.2251363441199619  4.5546226010490738
