 V  O                                   
   1.00000000000000     
     3.2760407172975357   -0.2670296106008493   -0.0352802558474307
    -1.6863719441008387    2.9330242379619289    0.5792097389925748
     0.3742440242788942    2.2047948137632849    3.3621901491800754
   V    O 
     1     1
Direct
  0.5693837582808480  0.2069497933059884  0.6624093834801403
  0.4306162417191517  0.7930502066940115  0.3375906165198594
 
  0.00000000E+00  0.00000000E+00  0.00000000E+00
  0.00000000E+00  0.00000000E+00  0.00000000E+00
