 V  O 
 1.0000000000000000
     4.2329342687357556    0.0000000000000000    0.0000000000000000
    -1.7919511024833767    4.3765844606779272    0.0000000000000000
     0.8230572005915955    2.6690063429391677    3.7584073174723653
   1   1
Cartesian
  0.2257701834219876  3.8743579018085477 -0.9332963412638176
  3.0382701834219876  3.1712329018085477  4.6917036587361824
