 V  O                                   
    1.000000000000000     
    19.3603052112461071    0.9091325274061668   -0.4387495022801560
    -2.3186201463296743    9.4500521346669686   -4.4538456816281276
    -5.9299710719488941   -8.6279444454037133   22.6173457434443925
   V    O 
     3     6
Direct
  0.2850238208344016  0.3223465347331010  0.7872512623159061
  0.1967730370572849  0.6058209207956289  0.0842750548891305
  0.4610686121447014  0.4207402633863543  0.1446418421159375
 -0.6996188048095100  0.1760602987922547 -0.6205490452952077
  0.0013189150693865 -0.2878584175318608  0.8456186343494778
  0.3181611165381713 -0.1902733433791367  0.0592447499337284
  0.2511869204956014  0.6504117172551462  0.7941166927019756
  0.9784652968748955  0.4037327249764711 -0.5183819321266546
  0.7076210857950672  0.3990193009720329 -0.0762172588843143
 
  0.00000000E+00  0.00000000E+00  0.00000000E+00
  0.00000000E+00  0.00000000E+00  0.00000000E+00
  0.00000000E+00  0.00000000E+00  0.00000000E+00
  0.00000000E+00  0.00000000E+00  0.00000000E+00
  0.00000000E+00  0.00000000E+00  0.00000000E+00
  0.00000000E+00  0.00000000E+00  0.00000000E+00
  0.00000000E+00  0.00000000E+00  0.00000000E+00
  0.00000000E+00  0.00000000E+00  0.00000000E+00
  0.00000000E+00  0.00000000E+00  0.00000000E+00
