 V  O 
 1.0000000000000000
     4.0967821146983763    0.0000000000000000    0.0000000000000000
    -0.6827866591449869    4.0918969082543040    0.0000000000000000
    -1.0847364621994746   -1.5510460605456693    4.2914328671298287
   3   6
Cartesian
 -0.6322455033230430  1.1662587571876504  1.9373831002315818
 -0.6322455033230430  4.4475087571876504  1.4686331002315818
  1.0083794966769570  1.4006337571876504  4.7498831002315818
 -0.3978705033230430 -0.0056162428123496  0.0623831002315818
  1.4771294966769570  4.2131337571876504  1.7030081002315818
  2.1802544966769570  2.3381337571876504  4.7498831002315818
  2.4146294966769570 -5.1618662428123496 -0.6407418997684182
  2.4146294966769570  2.8068837571876504  3.8123831002315818
  2.6490044966769570  0.2287587571876504  1.4686331002315818
