 V  O 
 1.0000000000000000
     5.9807953973589036    0.0000000000000000    0.0000000000000000
    -5.3022388248941441    6.2668200049973661    0.0000000000000000
     1.6120296320472465    2.0457691024256190    5.5076387904204056
   1   1
Cartesian
  0.4421681022560033  3.6875445537114926  2.6366318952102024
  1.8484181022560033  4.6250445537114926  2.8710068952102024
