 V  O                                   
    1.000000000000000     
     6.7171247107609346   -0.1660201769867282    0.9395295200338329
    -7.6710695365910917   21.6694031638553106   -0.3181917314017827
     3.4587586060371431    1.8934034066686980    7.5515770833101410
   V    O 
     3     6
Direct
  0.4002098418670615  0.4370966052707176 -0.1683340813995620
  0.5568488237918480  0.8898236925098622  0.0938617309063841
  0.7786462072665470  0.8438123786139241  0.0787239281676118
  0.1341409075102007  0.2871669770981816  0.0959358087734408
 -0.0010595350960022  0.9152096728983028  0.0591489296826983
  0.7274749144737953  0.7357932427741886  0.3887089180069919
  0.7040694592722994  0.3376383281673237  0.5672938848303896
 -0.2547096152434227 -0.5948020763554160  0.2165203026423445
  0.4543789961576732  0.6482611790229156  0.1681405783897011
 
  0.00000000E+00  0.00000000E+00  0.00000000E+00
  0.00000000E+00  0.00000000E+00  0.00000000E+00
  0.00000000E+00  0.00000000E+00  0.00000000E+00
  0.00000000E+00  0.00000000E+00  0.00000000E+00
  0.00000000E+00  0.00000000E+00  0.00000000E+00
  0.00000000E+00  0.00000000E+00  0.00000000E+00
  0.00000000E+00  0.00000000E+00  0.00000000E+00
  0.00000000E+00  0.00000000E+00  0.00000000E+00
  0.00000000E+00  0.00000000E+00  0.00000000E+00
