 V  O                                   
    1.000000000000000     
     6.6576941746848677    0.0000000000000000    0.0000000000000000
    -3.0567546933022589    4.8404179454439866    0.0000000000000000
    -1.2434850306664915   -0.9267519888768552    4.6748382603969469
   V    O 
     3     5
Direct
  0.4901537877776363  0.4658418887538716  0.9422434039934870
  0.5346164194530303  0.5626826998745784  0.9422434039934870
  0.6530114714408697  0.4069715463451686  0.3934622232347138
  0.3230648082927274  0.5121349172689946  0.1956290129968821
  0.2329180868762748  0.4169960077844763  0.1929205257941646
  0.2065042214026747  0.9711878963020055  0.3934622232347138
  0.5733916783092781  0.4741644485569978  0.7444101937556624
  0.9863395264475088  0.1900205951139071  0.1956290129968821
 
  0.00000000E+00  0.00000000E+00  0.00000000E+00
  0.00000000E+00  0.00000000E+00  0.00000000E+00
  0.00000000E+00  0.00000000E+00  0.00000000E+00
  0.00000000E+00  0.00000000E+00  0.00000000E+00
  0.00000000E+00  0.00000000E+00  0.00000000E+00
  0.00000000E+00  0.00000000E+00  0.00000000E+00
  0.00000000E+00  0.00000000E+00  0.00000000E+00
  0.00000000E+00  0.00000000E+00  0.00000000E+00
