 V  O                                   
    1.000000000000000     
     4.5443271724698553   -0.2698612693942777   -0.4076950433521520
    -2.7472767354731245   23.7340809453102253    8.9936097896384286
     2.4099265999512767   19.1205951935346334   12.6600634567132246
   V    O 
     3     5
Direct
  0.0216750571916566  0.1289919577926895  0.6100339634369352
  0.3400979167849317  0.2775391712213382  0.8876517901620222
 -0.2051384746497188  0.6609090359002654  0.4202405453991898
  0.7224167386426554 -0.1896758915389478 -0.8729695470897294
 -0.2742464244405141  0.8950771285518462  0.2488370375467222
  0.0095285284741947  0.7218070384447056  0.8608082211258570
  0.8486812482131385  0.4618885961934576  0.6229661647587069
  0.5369854097836486  0.0434629634346373  0.2224318246603034
 
  0.00000000E+00  0.00000000E+00  0.00000000E+00
  0.00000000E+00  0.00000000E+00  0.00000000E+00
  0.00000000E+00  0.00000000E+00  0.00000000E+00
  0.00000000E+00  0.00000000E+00  0.00000000E+00
  0.00000000E+00  0.00000000E+00  0.00000000E+00
  0.00000000E+00  0.00000000E+00  0.00000000E+00
  0.00000000E+00  0.00000000E+00  0.00000000E+00
  0.00000000E+00  0.00000000E+00  0.00000000E+00
