 V  O                                   
   1.00000000000000     
    27.5878925613675001   -6.7315752142167939   -2.9545871682939389
   -16.2317296358677403   12.3849463073720063   -5.0482734924025818
    -1.1715448234309389   -2.8697700646755600   13.7311083406140124
   V    O 
     2     4
Direct
 -0.8587588535394440  0.6826212270380037 -0.2243197923968598
 -0.2897395131664504 -0.9695381008390564  0.5872939888839342
  0.0131491442260511  0.4263940444346029 -0.2511979468161317
  0.4664549073560271  0.2858241236317414  0.1236798868058372
  0.4428273109850754 -0.2532073522896304  0.3766968275092341
  0.2260570041387466  0.8279060580243317  0.3878370360139827
 
  0.00000000E+00  0.00000000E+00  0.00000000E+00
  0.00000000E+00  0.00000000E+00  0.00000000E+00
  0.00000000E+00  0.00000000E+00  0.00000000E+00
  0.00000000E+00  0.00000000E+00  0.00000000E+00
  0.00000000E+00  0.00000000E+00  0.00000000E+00
  0.00000000E+00  0.00000000E+00  0.00000000E+00
