 V  O 
 1.0000000000000000
     4.7820000000000000    0.0000000000000000    0.0000000000000000
    -1.8614372438004685    3.9020585264053276    0.0000000000000000
     0.7363538984470035    1.9767108368423871    4.2680757720372968
   2   4
Cartesian
 -0.1246666949418350  2.1971758550907383  2.2121436726469308
  2.9222149582062111  5.0096873124348935  4.0871520400606354
  3.0302245143549040  5.3961306296571871  3.3840292373752114
 -1.0486168304100019  5.1617339739760189  3.3840292373752114
  0.5036286853081274  1.9125053998986323  2.2614826285716823
 -0.2191731974702499  3.8378245148250199  1.7434235913617950
