 V  O                                   
   1.00000000000000     
     3.3109795039236762   -0.3003933597790376   -0.6628112221243505
    -0.8928875668532057    2.8598553955073100    0.2086309246024467
    -1.1764752610967273   -0.7000520876969881    2.9813057969032650
   V    O 
     1     1
Direct
 -0.0503541811841701  0.6965331165712215  0.7295526670269060
  0.0503541811841702  0.3034668834287783  0.2704473329730945
 
  0.00000000E+00  0.00000000E+00  0.00000000E+00
  0.00000000E+00  0.00000000E+00  0.00000000E+00
