 V  O 
 1.0000000000000000
     5.9774980170590863    0.0000000000000000    0.0000000000000000
    -1.6129457225887915    3.0577227714680739    0.0000000000000000
    -1.4266473720384418   -0.6981066669888601    4.0379367350308391
   1   1
Cartesian
 -1.9294850387840734  2.3516830522396077  2.9564683675154200
  4.8673899612159266  0.0079330522396077  1.0814683675154200
