 V  O                                   
    1.000000000000000     
     4.9793641192063376    0.7689509526095346    0.3729101440327278
     1.4791639885739185    6.1864259318888042   -0.1141950951174855
    -1.9793113975078052    2.5519149395131908    4.0570579936210009
   V    O 
     3     6
Direct
 -0.7777560429722536  0.7210931816104458 -0.2256389011445471
  0.5206892671708695  0.9643997996213426 -0.0410032725353213
  0.9442889055536828  0.3339091316973783  0.1596902833912384
  0.2753870368832042  0.0146738467580609  0.5523111324601927
  0.1319331007959005  0.0224365040604170  0.0300527909885295
  0.5932982070963030  0.4127310080557443  0.8714018764847373
  0.1790905128019148  0.4559355800857199  0.0535009062709065
  0.7291883048729612  0.6016636460310137  0.2394900324197494
  0.9038807077974105  0.9731573020798774  0.8601951516645213
 
  0.00000000E+00  0.00000000E+00  0.00000000E+00
  0.00000000E+00  0.00000000E+00  0.00000000E+00
  0.00000000E+00  0.00000000E+00  0.00000000E+00
  0.00000000E+00  0.00000000E+00  0.00000000E+00
  0.00000000E+00  0.00000000E+00  0.00000000E+00
  0.00000000E+00  0.00000000E+00  0.00000000E+00
  0.00000000E+00  0.00000000E+00  0.00000000E+00
  0.00000000E+00  0.00000000E+00  0.00000000E+00
  0.00000000E+00  0.00000000E+00  0.00000000E+00
