 V  O 
 1.0000000000000000
     5.1635900000000001    0.0000000000000000    0.0000000000000000
     0.0318433544849717    5.4526870191837657    0.0000000000000000
    -0.2297610567549320    0.9317789364504150    3.6813662179123376
   2   7
Cartesian
  4.7297819100775040  2.4369956346725794  3.5333752959522617
  1.4365565558830369  3.1458768255394465  0.0864016651344026
  1.9099198084434288  3.6089023740690473  2.8302711619931844
  2.1443163480132390  1.9682716071036739  0.9552777198860725
  2.6130687331060289  1.0307547099842935  3.0646269354254838
  3.3161715344744072  3.6089224166315907  1.1896334933183719
  3.5505222131352441  4.3120464077553375  1.1896334933183719
  3.7848966927501713  3.8432789047161093  1.1896334933183719
  4.0239354774126861  4.7750386020923701  2.5272579085968196
