 V  O                                   
   1.00000000000000     
     4.6124200000000002    0.0000000000000000    0.0000000000000000
     0.5125472703226407    2.6412076643241837    0.0000000000000000
     1.1310742276763912    2.6503855449319635    2.6076808339215809
   V    O 
     2    11
Direct
  0.9406400000000019  0.6679499999999976  0.8224500000000035
  0.9649599999999978  0.0964799999999997  0.2831800000000015
  0.9748400000000004  0.1448800000000006  0.7212400000000017
  0.0888300000000015  0.7581399999999974  0.7325700000000026
  0.5234099999999984  0.0482399999999998  0.7325700000000026
  0.4895100000000028  0.9566000000000017  0.9123299999999972
  0.0568299999999979  0.7456999999999994  0.9795400000000001
  0.3368200000000030  0.8568700000000007  0.0694200000000009
  0.5152100000000033  0.2789399999999986  0.4515999999999991
  0.5022000000000020  0.9304399999999973  0.5301499999999990
  0.4806000000000026  0.1771299999999982  0.2605099999999965
  0.8115299999999976  0.8381600000000020  0.2718500000000006
  0.8146100000000018  0.0004700000000000  0.7325700000000026
 
  0.00000000E+00  0.00000000E+00  0.00000000E+00
  0.00000000E+00  0.00000000E+00  0.00000000E+00
  0.00000000E+00  0.00000000E+00  0.00000000E+00
  0.00000000E+00  0.00000000E+00  0.00000000E+00
  0.00000000E+00  0.00000000E+00  0.00000000E+00
  0.00000000E+00  0.00000000E+00  0.00000000E+00
  0.00000000E+00  0.00000000E+00  0.00000000E+00
  0.00000000E+00  0.00000000E+00  0.00000000E+00
  0.00000000E+00  0.00000000E+00  0.00000000E+00
  0.00000000E+00  0.00000000E+00  0.00000000E+00
  0.00000000E+00  0.00000000E+00  0.00000000E+00
  0.00000000E+00  0.00000000E+00  0.00000000E+00
  0.00000000E+00  0.00000000E+00  0.00000000E+00
