 V  O 
 1.0000000000000000
     4.6124200000000002    0.0000000000000000    0.0000000000000000
     0.5125472703226407    2.6412076643241837    0.0000000000000000
     1.1310742276763912    2.6503855449319635    2.6076808339215809
   2  11
Cartesian
  5.6112346965644564  3.9440042508146322  2.1446871018588043
  4.8205489636341294  1.0053598940678306  0.7384430585499132
  5.3864053372936649  2.2942222368340173  1.8807637246576010
  1.6268949030913009  3.9439981172815455  1.9103087485059327
  3.2675030794892588  2.0690047963778073  1.9103087485059327
  3.7800413831266400  4.9446054959002925  2.3790654552116757
  1.7522627770577255  4.5657072119691993  2.5543276840595452
  2.0712608568066564  2.4471613758586401  0.1810252034908361
  3.0301279650024555  1.9336525779778626  1.1776286645989860
  3.3928908080016367  3.8625871558394742  1.3824619941035261
  2.6021726970442263  1.1582890518919686  0.6793269340449111
  4.4801963514874510  2.9342619263197123  0.7088980347015817
  4.5861554003859455  1.9428343062530411  1.9103087485059327
