 V  O                                   
    1.000000000000000     
     8.5783542720672479    1.1625283885558404   -0.2138880916419017
     4.7561062022278247   17.8620785482304072    2.5768861527867069
    -3.9965548607997787   -3.5403202484250214    5.1180951951901754
   V    O 
     3     5
Direct
 -0.7082570980779044 -0.2835566916684651 -0.1769971025032755
  0.9782385708375222  0.8045573912074317  0.5242555227105443
  0.3973066473571718 -0.3459145541523514 -0.5079206655056991
  0.0187321984222679  0.9592563779854203  0.7235281666892213
 -0.8206469518810618  0.5081457574929892  0.4927123753054405
  0.1917205775987780  0.7476611918659956  0.0198555283935382
  0.0707890661116053  0.2063166862046819  0.4324351640809874
  0.8720969896316146  0.4035338410642909  0.4921310108292574
 
  0.00000000E+00  0.00000000E+00  0.00000000E+00
  0.00000000E+00  0.00000000E+00  0.00000000E+00
  0.00000000E+00  0.00000000E+00  0.00000000E+00
  0.00000000E+00  0.00000000E+00  0.00000000E+00
  0.00000000E+00  0.00000000E+00  0.00000000E+00
  0.00000000E+00  0.00000000E+00  0.00000000E+00
  0.00000000E+00  0.00000000E+00  0.00000000E+00
  0.00000000E+00  0.00000000E+00  0.00000000E+00
