 V  O 
 1.0000000000000000
     3.4813999999999998    0.0000000000000000    0.0000000000000000
     1.0767823012363169    6.2973843589338117    0.0000000000000000
    -1.3241322470176049   -1.6028424227482099    3.2324415822481241
   3   5
Cartesian
  1.8513851933961507  1.3218707331314796  0.5908256724033121
  2.0857658333787610  2.0250013079988851  0.8252100115321237
  0.7137400876670693  1.0875185009567685  2.2314513974733474
  2.2859232107503762  4.1343742238810162  2.7002200757309707
 -0.2579882045077574  1.0874914152711534  2.9345720904439596
  1.3826413516183904  3.6656405718186558  2.9345720904439596
  0.2928951153779293  2.0627882955844252  2.8857622225520130
  3.2576357541763215  1.7906402733518141  1.0595943506609351
