 V  O                                   
   1.00000000000000     
     6.7025575478039050   -0.1391379322328858    0.3005048764349421
    -1.9718384686727022    2.2879185456379978    0.0462579449872034
    -0.7979502688949550    3.2358320119168740    4.0245372088773266
   V    O 
     3     1
Direct
  0.0078738854831959 -0.3621775084638210 -0.1290052233906304
 -0.6602521242464342 -0.6970917054421158  0.2050304335049501
 -0.3437791108535864 -0.0590126786147916  0.5471543297925350
  0.9961573496168249  0.1182818925207302 -0.6231795399068553
 
  0.00000000E+00  0.00000000E+00  0.00000000E+00
  0.00000000E+00  0.00000000E+00  0.00000000E+00
  0.00000000E+00  0.00000000E+00  0.00000000E+00
  0.00000000E+00  0.00000000E+00  0.00000000E+00
