 V  O                                   
    1.000000000000000     
     8.8406121881238775   -3.4159070566675505   -0.3384697416987005
    -6.3411182209453605   15.1651970087668033    0.1905722594011165
    -3.9044895292033237   -3.6044604676170335    5.9756527002475099
   V    O 
     3     6
Direct
  0.4477500894181722  0.4259463579346551  0.7561961283523052
  0.2260538808900992  0.6024313622220122  0.6310978573733821
  0.0219559535236238  0.6017291153085897  0.4255110987443534
  0.1112658341261089 -0.2577898457233129  0.2788942302993979
  0.4329841532176587  0.2924236673586819  0.1156283431870923
  0.3591177288861926  0.8874130273470602  0.3161336010270837
  0.3655413448387294  0.8823339102819409  0.8285172218583978
  0.5802516144487526  0.5373200336412616  0.2862910941631577
  0.9550894006506584  0.5281723716291123  0.8617204249948339
 
  0.00000000E+00  0.00000000E+00  0.00000000E+00
  0.00000000E+00  0.00000000E+00  0.00000000E+00
  0.00000000E+00  0.00000000E+00  0.00000000E+00
  0.00000000E+00  0.00000000E+00  0.00000000E+00
  0.00000000E+00  0.00000000E+00  0.00000000E+00
  0.00000000E+00  0.00000000E+00  0.00000000E+00
  0.00000000E+00  0.00000000E+00  0.00000000E+00
  0.00000000E+00  0.00000000E+00  0.00000000E+00
  0.00000000E+00  0.00000000E+00  0.00000000E+00
