 V  O 
 1.0000000000000000
     5.8304499999999999    0.0000000000000000    0.0000000000000000
    -1.7476817593767691    6.3002288154908888    0.0000000000000000
    -3.3180955484191692   -2.5092245143501386    5.9154852301518943
   3   6
Cartesian
 -0.4770457208647299  1.2705246125079579  4.4421153238779620
  1.3979299187337082  2.6767335486756307  4.2077437990593438
 -2.3230981522269620  2.6767186005263746  2.5671431253290176
  3.7128386176799038 -0.1357542654511320  1.1608548215650076
  2.1994911317007659  5.6957375261672345  1.1608548215650076
 -0.4770068922544147  4.7861168961363418  1.8639693960208619
  0.2260810854423753  2.6767356841255245  4.4421153238779620
  1.3979915788938539  2.6767351509719437  1.6295978712022439
  1.8667402275276810  1.0360995046332238  5.1452298983338158
