 V  O                                   
    1.000000000000000     
    11.7705093968319687    0.0560468573397131    4.1993936878730977
     3.3531249097985190    5.4283489921214452    0.8923942848299273
     3.2620805421052896   -0.7007135323517061    8.4464686973400891
   V    O 
     3     7
Direct
  0.5930855140920968  0.8014121879745795  0.4231911659875167
  0.3025134893020492  0.4298197325071484  0.5195388289433954
  0.6111967335220295 -0.0160436936119191 -0.1995038155704457
  0.1966092709884217  0.6058919018831959  0.2541221088453861
  0.0683658159944040  0.4650323648937993  0.6255616858782418
  0.1734735679177420  0.6825249219154415  0.5295321830782378
  0.9591353794130956  0.8220520045584524  0.2102309454893852
  0.4261771981345931  0.7567133910581217  0.2184978380527680
 -0.3606147714630429  0.3497688870492151  0.1335168144954308
  0.0300578020986151  0.1028283017719796  0.2853122448000972
 
  0.00000000E+00  0.00000000E+00  0.00000000E+00
  0.00000000E+00  0.00000000E+00  0.00000000E+00
  0.00000000E+00  0.00000000E+00  0.00000000E+00
  0.00000000E+00  0.00000000E+00  0.00000000E+00
  0.00000000E+00  0.00000000E+00  0.00000000E+00
  0.00000000E+00  0.00000000E+00  0.00000000E+00
  0.00000000E+00  0.00000000E+00  0.00000000E+00
  0.00000000E+00  0.00000000E+00  0.00000000E+00
  0.00000000E+00  0.00000000E+00  0.00000000E+00
  0.00000000E+00  0.00000000E+00  0.00000000E+00
