 V  O                                   
    1.000000000000000     
    16.2798080258522901   -0.3802942914118564   -2.1070496347645316
     9.2932506180171011    7.7759640747801519   -3.1686338832056951
    -4.8688829074756814   -5.3167808448947715   14.4382282612016901
   V    O 
     3     5
Direct
  0.5148788738263773  0.4233682231005515  0.1687080896965172
 -0.3535625679604903  0.8721135964166287  0.6862405904583085
  0.2374128809731246 -0.4286444278593797 -0.0453011419055745
  0.7409892250244460  0.8085904737078888  0.3498573896064348
  0.1310079831204716  0.0358594757697361  0.6503551262859686
  0.5300378041019919  0.4794900868307860  0.4000787303057428
  0.6675843007848538 -0.3405887844269704  0.5016007320201137
  0.5316515001292104  0.1498113564607584 -0.7115395164675054
 
  0.00000000E+00  0.00000000E+00  0.00000000E+00
  0.00000000E+00  0.00000000E+00  0.00000000E+00
  0.00000000E+00  0.00000000E+00  0.00000000E+00
  0.00000000E+00  0.00000000E+00  0.00000000E+00
  0.00000000E+00  0.00000000E+00  0.00000000E+00
  0.00000000E+00  0.00000000E+00  0.00000000E+00
  0.00000000E+00  0.00000000E+00  0.00000000E+00
  0.00000000E+00  0.00000000E+00  0.00000000E+00
