 V  O                                   
    1.000000000000000     
     1.0811650005961053   -4.6774178094794951   11.1543804151379451
    -0.4518790650115411   -3.0781253835269480   -7.5470397539327649
     1.9476896292003747    6.1477506619509406   -4.9812786536761395
   V    O 
     3     5
Direct
  0.4976133650025694  0.7454137324999026 -0.9727465827468991
  0.7253042126023077  0.0381312765508002  0.5605524048394361
  0.7565140619347892  0.4469986067326618  0.3943050468702170
  0.8974006981178374  0.1359363624708267  0.1641818077000674
  0.7078355718797915  0.8059276217644296 -0.0426520390449208
 -0.4332555836217135  0.4792813754720550 -0.2756097444203942
  0.1067886756680846  0.7347433902211281  0.3573378943108740
 -0.2582010015836662 -0.3864323657118031  0.8146312124916120
 
  0.00000000E+00  0.00000000E+00  0.00000000E+00
  0.00000000E+00  0.00000000E+00  0.00000000E+00
  0.00000000E+00  0.00000000E+00  0.00000000E+00
  0.00000000E+00  0.00000000E+00  0.00000000E+00
  0.00000000E+00  0.00000000E+00  0.00000000E+00
  0.00000000E+00  0.00000000E+00  0.00000000E+00
  0.00000000E+00  0.00000000E+00  0.00000000E+00
  0.00000000E+00  0.00000000E+00  0.00000000E+00
