 V  O 
 1.0000000000000000
     4.2230900000000000    0.0000000000000000    0.0000000000000000
     0.1740549008997857    4.9192917486537393    0.0000000000000000
    -4.4516746895860821   -0.5359444579048692    4.8368978195781347
   3   5
Cartesian
 -1.2284510086616631  3.2463511093853517  1.4809613743984333
  1.1152996060518181  4.1838697308437816  1.4809613743984333
  1.5840715834122949  2.0744847804684587  1.7153090737569938
  1.1196709215668015  3.9495028528213205  3.3559364451797014
  3.9263398867804273  4.4854281401621936  0.1596659970242742
  0.4121893887823220  0.1994800355714624  1.0122176067031163
  0.6465738377408594 -0.2692724073739033  3.8246802128750188
  0.8809513191680363  0.1994893790216850  1.4809613743984333
