 V  O                                   
    1.000000000000000     
    10.1821157965974596    0.1410538638079050    0.1895272473535012
    -3.0307819999800634    4.4847136707916473   -0.7687809457330327
    -2.0979218703264912   -1.3294056934142313    6.5374918596508262
   V    O 
     3     4
Direct
  0.0573424055659573  0.3212608129168314  0.1368536130047370
  0.6015646167137969  0.0209172072689486  0.0055417056647482
  0.3965512006323367  0.0494718092973971  0.6343498635665341
 -0.6103700199920905  0.2687307682952814 -0.5504716628151226
 -0.0028849341351359  0.3537209011114535 -0.2153097615028100
  0.1172083255122522 -0.3899340989059356  0.1346386797066883
 -0.0594115942971023  0.8758326000160168  0.3543975623752328
 
  0.00000000E+00  0.00000000E+00  0.00000000E+00
  0.00000000E+00  0.00000000E+00  0.00000000E+00
  0.00000000E+00  0.00000000E+00  0.00000000E+00
  0.00000000E+00  0.00000000E+00  0.00000000E+00
  0.00000000E+00  0.00000000E+00  0.00000000E+00
  0.00000000E+00  0.00000000E+00  0.00000000E+00
  0.00000000E+00  0.00000000E+00  0.00000000E+00
