 V  O 
 1.0000000000000000
     3.7634799999999999    0.0000000000000000    0.0000000000000000
    -1.0231804957134940    3.1059908089998411    0.0000000000000000
    -1.4097511516664776    1.7047906613059813    3.6992628392693261
   1   2
Cartesian
 -1.2938110931425491  3.0493976935276055  1.6152461261385584
 -0.7485342857495746  3.4020100060366905  1.8496314196346630
 -0.7485302226913277  3.8707553148942786  2.0840167131307674
