 V  O                                   
    1.000000000000000     
     7.0263874504186941    3.7622147051681076    3.8805610298784519
    -2.9318574860537199   21.2825114366433326   15.0988293792538748
    -1.7037716824232072   33.9070659443538176   32.6199485510303759
   V    O 
     3     5
Direct
  0.9653141008373791  0.7293373008949295  0.9378747012808653
  0.0585372838363933  0.1818304914738302  0.9042763222714293
 -0.0589172149003899 -0.9524098086264356 -0.4570053125929574
  0.2059841258454422  0.3915510570465599  0.6660242805793578
  0.7329629524059392  0.4553443176548734  0.3707222945742403
 -0.4016854820897448 -0.9675411258256188 -0.1142236648009040
  0.0545305463841207  0.2422659766692387 -0.1642938654578492
  0.4432736876808534 -0.0803782092873637 -0.1433747558541888
 
  0.00000000E+00 -0.00000000E+00 -0.00000000E+00
  0.00000000E+00 -0.00000000E+00 -0.00000000E+00
  0.00000000E+00 -0.00000000E+00 -0.00000000E+00
  0.00000000E+00 -0.00000000E+00 -0.00000000E+00
  0.00000000E+00 -0.00000000E+00 -0.00000000E+00
  0.00000000E+00 -0.00000000E+00 -0.00000000E+00
  0.00000000E+00 -0.00000000E+00 -0.00000000E+00
  0.00000000E+00 -0.00000000E+00 -0.00000000E+00
