 V  O 
 1.0000000000000000
     6.7339540004394687    0.0000000000000000    0.0000000000000000
    -2.1515942432690056    2.8489434553398976    0.0000000000000000
    -0.7402603630419208    1.6862172531154715    3.2821427609135561
   3   5
Cartesian
  0.2804246970642712 -0.6328102707723158  3.5453682554567783
  0.2804246970642712  5.6953147292276842  2.3734932554567783
  3.0929246970642712 -0.1640602707723158  0.7328682554567783
  0.7491746970642712  0.5390647292276842 -1.1421317445432217
  1.6866746970642712  4.7578147292276842  0.9672432554567783
  2.3897996970642712  2.6484397292276842  2.1391182554567783
  2.3897996970642712  3.8203147292276842  1.6703682554567783
  4.4991746970642712  1.4765647292276842  2.8422432554567783
