 V  O                                   
   1.00000000000000     
     4.7999318781337363    0.5326326060507134   -0.3361996933887028
    -0.6616582727989649    2.6422773383448086    1.0382240287154920
    -0.0997509543545408    1.1291047887099142    3.5395042352022195
   V    O 
     1     1
Direct
  0.4917543937766275  0.4538632885057871  0.7828055807137763
  0.5082456062233724  0.5461367114942125  0.2171944192862235
 
  0.00000000E+00  0.00000000E+00  0.00000000E+00
  0.00000000E+00  0.00000000E+00  0.00000000E+00
