 V  O 
 1.0000000000000000
     5.5854074884917750    0.0000000000000000    0.0000000000000000
    -1.2917294236215169    4.5610546874352895    0.0000000000000000
     0.0524131523241082    0.6508898336288335    3.7479366747783658
   1   1
Cartesian
  2.2902331085971834  2.6059722605320612  3.0458433373891829
  2.0558581085971834  2.6059722605320612  0.7020933373891829
