 V  O                                   
   1.00000000000000     
     5.9539762699506538    1.1044219717982937   -0.2577573976148165
    -1.7436424976931515    4.6360197238603327   -0.4551267255776750
    -1.5946162707873581    0.3096325039373692    4.6377423364607449
   V    O 
     3     1
Direct
 -0.1648701208055750 -0.4809553566266407 -0.1977610678797357
 -0.0753165063385695 -0.0600436381587944  0.0536197234205631
 -0.0638568842357317  0.3878793574681976  0.1756244332902881
  0.3040435113798686  0.1531196373172380 -0.0314830888311084
 
  0.00000000E+00  0.00000000E+00  0.00000000E+00
  0.00000000E+00  0.00000000E+00  0.00000000E+00
  0.00000000E+00  0.00000000E+00  0.00000000E+00
  0.00000000E+00  0.00000000E+00  0.00000000E+00
