 V  O                                   
   1.00000000000000     
     2.9417264825927525   -0.0529295178732891   -0.0685332224557032
     0.1474866005585161    2.9404388990887491    0.0418326285661171
    -0.1139828459679011    3.5063326273734976    3.8473699476775085
   V    O 
     1     1
Direct
  0.7499117471800818  0.2478504678146684  0.5016785500289764
  0.2500882528199182  0.7521495321853316  0.4983214499710235
 
  0.00000000E+00  0.00000000E+00  0.00000000E+00
  0.00000000E+00  0.00000000E+00  0.00000000E+00
