 V  O 
 1.0000000000000000
     4.5189304165228084    0.0000000000000000    0.0000000000000000
     0.4006724118484795    3.2582705768100704    0.0000000000000000
     0.1375139386971773    3.8166835533298884    3.8714423065322139
   1   1
Cartesian
  3.5832458835342322  2.5999770650699796  1.8185336532661065
  1.4738708835342322  4.4749770650699796  2.0529086532661065
