 V  O                                   
    1.000000000000000     
    18.6539028627765617   -5.7447285504202359   -3.7922980991985478
   -16.2434870702055072   20.1399600336681033   -4.0024404517686527
    11.7912830003827640   -2.3871300079650517    7.0013599928237928
   V    O 
     3     5
Direct
 -0.9118220194393050  0.2456209455834979  0.2695075011496664
  0.2872106048610402  0.3811699150250116 -0.3320020374363155
  0.0040178653106949  0.5603834978611381  0.3960633753619249
  0.4758246028341515  0.1615221902135903 -0.6729015057763116
 -0.1973050747988588 -0.6339762458060201  0.2280031151155102
 -0.4087310532684157 -0.8215303468634907  0.5657121643833811
  0.8984511655961387  0.6509561663328621 -0.7081747495950784
  0.8523539089045613  0.4558538776534099  0.2537921367972241
 
  0.00000000E+00  0.00000000E+00  0.00000000E+00
  0.00000000E+00  0.00000000E+00  0.00000000E+00
  0.00000000E+00  0.00000000E+00  0.00000000E+00
  0.00000000E+00  0.00000000E+00  0.00000000E+00
  0.00000000E+00  0.00000000E+00  0.00000000E+00
  0.00000000E+00  0.00000000E+00  0.00000000E+00
  0.00000000E+00  0.00000000E+00  0.00000000E+00
  0.00000000E+00  0.00000000E+00  0.00000000E+00
