 V  O                                   
   1.00000000000000     
     3.1278987414155357   -0.0763825305012476   -0.6193194253965479
    -3.0351734445358955    3.1845954342336595    1.2706217451482149
    -1.3053954618865016   -2.0742163315244002    2.0978756257845594
   V    O 
     1     1
Direct
  0.5085885758467700  0.2557084716756091  0.4968603474593520
  0.4914114241532299  0.7442915283243913  0.5031396525406476
 
  0.00000000E+00  0.00000000E+00  0.00000000E+00
  0.00000000E+00  0.00000000E+00  0.00000000E+00
