 V  O 
 1.0000000000000000
     5.2763739990759753    0.0000000000000000    0.0000000000000000
    -5.2500369746516728    6.8703007236865217    0.0000000000000000
    -1.4545317119926660   -4.7608651925561745    3.5354155884053782
   1   1
Cartesian
 -0.8312848437841822  1.7578427655651740  4.6973952942026891
 -0.5969098437841822  0.3515927655651740 -1.1619797057973109
