 V  O                                   
   1.00000000000000     
     5.3551967609633930    0.0000000000000000    0.0000000000000000
    -2.3308040330794695    4.5229085829140789    0.0000000000000000
     0.0164342578905980   -0.3583577043385341    4.0668291960655658
   V    O 
     2     8
Direct
  0.6628182731190222  0.5198489013274425  0.6007500645295920
  0.7322447031228450  0.4741869687673201  0.0244411302209073
  0.3955095863266322  0.6983464808833801  0.9294541550343993
  0.4583638193033082  0.7515493951082917  0.2549647039443812
  0.4460030780642299  0.6099974041718923  0.4684070075874516
  0.4830413841154595  0.6983464808833801  0.9294541550343993
  0.3419265443857782  0.2776326374730473  0.5057630893430840
  0.3911240536156910  0.2913312172410869  0.6786557696356965
  0.4105254039083661  0.2349454933216890  0.6210248762048209
  0.6784431540386748  0.4438150208224698  0.9870850484652678
 
  0.00000000E+00  0.00000000E+00  0.00000000E+00
  0.00000000E+00  0.00000000E+00  0.00000000E+00
  0.00000000E+00  0.00000000E+00  0.00000000E+00
  0.00000000E+00  0.00000000E+00  0.00000000E+00
  0.00000000E+00  0.00000000E+00  0.00000000E+00
  0.00000000E+00  0.00000000E+00  0.00000000E+00
  0.00000000E+00  0.00000000E+00  0.00000000E+00
  0.00000000E+00  0.00000000E+00  0.00000000E+00
  0.00000000E+00  0.00000000E+00  0.00000000E+00
  0.00000000E+00  0.00000000E+00  0.00000000E+00
