 V  O 
 1.0000000000000000
     5.3551967609633930    0.0000000000000000    0.0000000000000000
    -2.3308040330794695    4.5229085829140789    0.0000000000000000
     0.0164342578905980   -0.3583577043385341    4.0668291960655658
   2   8
Cartesian
  2.3641634928872612  1.7775879392877725  6.5099770980327829
  2.8329134928872612  1.7775879392877725  4.1662270980327829
  0.4891634928872612  3.1838379392877725 -0.2868979019672171
  0.7235384928872612  2.9494629392877725  5.1037270980327829
  0.9579134928872612  2.9494629392877725 -2.1618979019672171
  0.9579134928872612  3.1838379392877725 -0.2868979019672171
  1.1922884928872612  1.0744629392877725  2.0568520980327829
  1.4266634928872612  1.0744629392877725  2.7599770980327829
  1.6610384928872612  0.8400879392877725  2.5256020980327829
  2.5985384928872612  2.0119629392877725 -0.0525229019672171
