 V  O                                   
   1.00000000000000     
     4.9460156477923620   -0.0817896378582396    0.1509968109857983
     0.8201805779150743    3.7921255002050787    0.5804450401195426
     2.4410398201010417    2.0374216830223117    4.4273030669361191
   V    O 
     3     3
Direct
  0.1749204470048661  0.0622576838341230  0.1286761051106430
  0.5166035116893776  0.2166460317093511  0.4258255129319829
  0.8472196524579356  0.0516951505626407  0.8470955367685022
 -0.1214958439113750  0.4859094811091421  0.9205093708546949
  0.5167348567372780 -0.1828817779671083  0.2943988395207463
  0.0660173760219246  0.3663734307518443  0.3834946348134312
 
  0.00000000E+00  0.00000000E+00  0.00000000E+00
  0.00000000E+00  0.00000000E+00  0.00000000E+00
  0.00000000E+00  0.00000000E+00  0.00000000E+00
  0.00000000E+00  0.00000000E+00  0.00000000E+00
  0.00000000E+00  0.00000000E+00  0.00000000E+00
  0.00000000E+00  0.00000000E+00  0.00000000E+00
