 V  O 
 1.0000000000000000
     5.0800912755740981    0.0000000000000000    0.0000000000000000
     0.8536646027388776    5.1172520011140428    0.0000000000000000
     2.4136288789371725    2.0934762984118196    3.6173824355807942
   3   3
Cartesian
  3.7830673786250744  2.4725516497629307  4.0743162177903969
  4.0174423786250744  2.2381766497629307  1.2618162177903969
  4.4861923786250744  3.8788016497629307 -0.6131837822096031
  2.8455673786250744  4.1131766497629307  3.3711912177903969
  3.7830673786250744  5.9881766497629307  0.7930662177903969
  6.1268173786250744  2.9413016497629307  1.9649412177903969
