 V  O                                   
   1.00000000000000     
     5.3232678512680192    0.0927284832068044    0.0244503407935258
     0.7526338761968620    7.2744921309500947    0.1803026296089812
     1.1959407888115459    0.9825681301394656    4.0394884547196011
   V    O 
     1     1
Direct
  0.1038439792060027  0.8022382530150164  0.4994617683395102
  0.8961560207939973  0.1977617469849838  0.5005382316604898
 
  0.00000000E+00  0.00000000E+00  0.00000000E+00
  0.00000000E+00  0.00000000E+00  0.00000000E+00
