 V  O 
 1.0000000000000000
     4.5798399999999999    0.0000000000000000    0.0000000000000000
     0.5228525797966418    7.1570070103500658    0.0000000000000000
     0.9979723998619241    0.8635795475058531    3.4627185606606004
   1   1
Cartesian
  1.4097309298727472  6.1196779550884353  1.7313592803303002
  4.6909340497858185  1.9009086027674846  1.7313592803303002
