 V  O                                   
    1.000000000000000     
     4.6183170019368154   -0.3868932211627080   -0.0841472616585407
     1.7025148044641125    5.2374786314270683   -0.7016949949253307
    -0.2702161361315231    0.9810416015536069    5.3843779896730464
   V    O 
     3     6
Direct
  0.1715401376200806  0.3024572867917403  0.7513012941001068
 -0.4675596984579872  0.7114614101888165  0.0429039687232332
  0.6439112678432767  0.1641868540717273 -0.6251168656481669
  0.3777751341812262  0.0479313360169942  0.9213863628868934
  0.8190849146250786 -0.8159426700733330  0.6646791312491213
 -0.2921395421875015  0.3864279959069460  0.1819502514930491
  0.2371399747108709  0.5865283360668408 -0.1508093365438616
  0.7426729595349568  0.8518268310184054  0.2910176376484753
 -0.7324251478700102 -0.7348773799881378  0.4226875560911427
 
  0.00000000E+00  0.00000000E+00  0.00000000E+00
  0.00000000E+00  0.00000000E+00  0.00000000E+00
  0.00000000E+00  0.00000000E+00  0.00000000E+00
  0.00000000E+00  0.00000000E+00  0.00000000E+00
  0.00000000E+00  0.00000000E+00  0.00000000E+00
  0.00000000E+00  0.00000000E+00  0.00000000E+00
  0.00000000E+00  0.00000000E+00  0.00000000E+00
  0.00000000E+00  0.00000000E+00  0.00000000E+00
  0.00000000E+00  0.00000000E+00  0.00000000E+00
