 V  O                                   
    1.000000000000000     
     8.9401757567756128    1.8654710166648651   -1.2866254499814989
    -4.2960382278917271   16.5079886833655145   -5.1097036545921579
    -0.8744589801208639   -4.8021785849483942   10.6729812336394332
   V    O 
     3     5
Direct
  0.6563557307500408  0.6538844253163595  0.2177735130760301
 -0.4416947335437986 -0.0171689256168200  0.9054844048777013
  0.0262599771821941  0.6762019102600754  0.4341557895450970
  0.8781530233556227  0.2403734024515702  0.0811550255954334
  0.1846119543052565 -0.0629503865724753  0.3768824811951764
 -0.3015811180039152  0.1001715464022518 -0.2340317235071591
  0.4484737887592128 -0.1087614295594173  0.0807643236581059
  0.5494213771953793  0.5182594573184516  0.1378061855596191
 
  0.00000000E+00  0.00000000E+00  0.00000000E+00
  0.00000000E+00  0.00000000E+00  0.00000000E+00
  0.00000000E+00  0.00000000E+00  0.00000000E+00
  0.00000000E+00  0.00000000E+00  0.00000000E+00
  0.00000000E+00  0.00000000E+00  0.00000000E+00
  0.00000000E+00  0.00000000E+00  0.00000000E+00
  0.00000000E+00  0.00000000E+00  0.00000000E+00
  0.00000000E+00  0.00000000E+00  0.00000000E+00
