 V  O 
 1.0000000000000000
     6.8847800000000001    0.0000000000000000    0.0000000000000000
    -5.9078257439086883   11.6656425742266663    0.0000000000000000
     0.3896220678671920   -1.3817097164936731    5.4262274030838284
   3   5
Cartesian
  0.8004945121473267  7.3684938003390812  1.1310971021728240
  0.6452347381626735  4.7659065143085133  0.1579574797037702
  2.2067017036957699  5.9623170789177395  3.9435650274652030
  4.6384163019794844  2.6809796327121935  0.4279665552812215
  0.0973120376910402  5.0248403732017541  3.2404344805736010
  0.3316804338386066  5.4935784536105672  2.7717169574952196
  1.4244817998050587  4.1118306724134399  5.1510634114734470
  2.2067007940359384  5.7279153789515913  4.8810543358959961
