 V  O 
 1.0000000000000000
     5.9511177574869549    0.0000000000000000    0.0000000000000000
    -2.4419709837673271    5.5166283860338723    0.0000000000000000
    -0.0377449014086044   -4.5148064198671536    6.8034005078191582
   3   5
Cartesian
  1.2083571861555118  2.7860672330833598  3.4895908789095795
  2.6146071861555118 -0.0264327669166402  2.7864658789095795
  3.0833571861555118  3.9579422330833598  5.8333408789095795
 -1.1353928138444882 -0.4951827669166402  1.6145908789095795
  0.9739821861555118  0.4423172330833598  3.4895908789095795
  1.2083571861555118  0.9110672330833598  3.4895908789095795
  2.8489821861555118 -1.1983077669166402  3.2552158789095795
  3.0833571861555118 -2.3701827669166402  3.2552158789095795
