 V  O 
 1.0000000000000000
     5.4097122380976455    0.0000000000000000    0.0000000000000000
    -2.6605369804503067    2.5210995052238014    0.0000000000000000
     0.1208262316505067    0.2206930406451001    3.8354367804047178
   2   7
Cartesian
 -0.4920825886844105  3.4802712729344503  2.9333433902023591
  0.2110424113155895  0.4333962729344503  4.5739683902023591
 -0.0233325886844105  1.1365212729344503  1.5270933902023591
  0.4454174113155895 -0.7384787270655497  4.1052183902023591
  0.9141674113155895  2.3083962729344503  4.1052183902023591
  2.5547924113155895  0.4333962729344503 -0.3479066097976409
  2.7891674113155895  1.1365212729344503 -0.3479066097976409
  3.0235424113155895  1.6052712729344503  0.1208433902023591
  3.4922924113155895  2.5427712729344503  0.5895933902023591
