 V  O 
 1.0000000000000000
     3.6158993731725615    0.0000000000000000    0.0000000000000000
    -1.0024141322193718    3.7732188970462452    0.0000000000000000
    -0.9309484050076801   -1.0590422285418972    3.9586721906423974
   2   5
Cartesian
  0.7408219894013257 -0.6518402371763976 -1.6702174761073723
  2.8501969894013257 -0.8862152371763976  0.2047825238926277
 -0.1966780105986743  0.2856597628236024  3.4860325238926277
  0.0376969894013257  3.8012847628236024  3.7204075238926277
  0.2720719894013257  3.0981597628236024  4.4235325238926277
  0.5064469894013257  3.0981597628236024  3.9547825238926277
  1.6783219894013257  0.7544097628236024 -0.2639674761073723
