 V  O                                   
    1.000000000000000     
    15.5282453334307817    7.3078894766578575    7.3977539133172714
    -0.7582280014120872   11.2111294902196761   -0.7323054447023072
    -1.7268691247002863   -5.6954960408302302   19.6777080150252672
   V    O 
     3     5
Direct
  0.6525827246198627  0.5536898415164162  0.3715842294627306
  0.3316887261493878  0.0449730139243226  0.2723191903167269
  0.3705662235369629  0.6191610611642158 -0.2388603701618366
  0.1848116959350266  0.7762550265613078  0.6696464753001001
  0.9908505538991512 -0.8874890459264339  0.1827201654229998
 -0.9149435991726825  0.0157820214822999  0.0257580512084015
  0.3010617317835182  0.1223451486270022  0.9493635154437158
 -0.9166180567512201 -0.2447170673491425 -0.2325312569928273
 
 -0.00000000E+00  0.00000000E+00 -0.00000000E+00
 -0.00000000E+00  0.00000000E+00 -0.00000000E+00
 -0.00000000E+00  0.00000000E+00 -0.00000000E+00
 -0.00000000E+00  0.00000000E+00 -0.00000000E+00
 -0.00000000E+00  0.00000000E+00 -0.00000000E+00
 -0.00000000E+00  0.00000000E+00 -0.00000000E+00
 -0.00000000E+00  0.00000000E+00 -0.00000000E+00
 -0.00000000E+00  0.00000000E+00 -0.00000000E+00
