 V  O 
 1.0000000000000000
     5.3436857980223840    0.0000000000000000    0.0000000000000000
    -1.6139958020016427    3.8022813200377232    0.0000000000000000
    -2.4772149473680298   -1.3122561090309446    2.7953069600734155
   3   6
Cartesian
 -1.5352208090069777  4.0575126055033888  1.2414034800367073
  0.8085291909930223 -0.3956123944966112  3.1164034800367073
  1.9804041909930223  1.4793876055033888 -1.1023465199632927
 -0.5977208090069777  2.4168876055033888  5.2257784800367073
 -0.1289708090069777  1.2450126055033888  2.6476534800367073
  0.1054041909930223  1.4793876055033888  2.8820284800367073
  0.8085291909930223  1.4793876055033888  2.6476534800367073
  1.9804041909930223 -0.6299873944966112 -2.0398465199632927
  2.2147791909930223  0.0731376055033888 -2.0398465199632927
