 V  O 
 1.0000000000000000
     4.2736350745003957    0.0000000000000000    0.0000000000000000
     1.1093015810686793    3.7750013845626951    0.0000000000000000
     0.2550165711315415    0.7524412594535826    3.7466398438969444
   3   8
Cartesian
  1.9453970678957626  3.8404258674626846  4.7071267401302901
  3.3516470678957626  5.4810508674626846  0.2540017401302901
  3.8203970678957626  4.3091758674626846  2.8321267401302901
  1.7110220678957626  1.7310508674626846  4.7071267401302901
  1.9453970678957626  1.4966758674626846  2.1290017401302901
  2.1797720678957626  1.2623008674626846  2.3633767401302901
  2.1797720678957626  1.4966758674626846 -0.4491232598697099
  2.4141470678957626  1.7310508674626846 -0.2147482598697099
  3.3516470678957626 -0.3783241325373154  1.8946267401302901
  3.3516470678957626  4.3091758674626846  3.0665017401302901
  4.7578970678957626 -0.3783241325373154 -0.6834982598697099
