 V  O                                   
    1.000000000000000     
     6.3227210664051210    1.2103131994254364    1.7144348966948029
    -1.4486578828652135    4.5358831439951324    0.5087567223034209
    -0.4107008792997202   -2.4834256411740778    5.3444378047210011
   V    O 
     3     5
Direct
  0.8287295850947384  0.2820025637062459 -0.0859148554058485
  0.0728426838202869  0.9325827177357949 -0.0459300578964757
 -0.1016238638297415  0.2895229811230099  0.5500765418380372
  0.0739262911917523  0.2770401877324433  0.0014949401515341
  0.1949245626576062  0.1687463989108395  0.8479676770609440
  0.0219618809665308  0.2934862643218106  0.1062496484213108
 -0.3844831398417901 -0.5056316338927802 -0.3961416936782842
 -0.7062780000593862  0.2622505203626315  0.0221977995087646
 
  0.00000000E+00  0.00000000E+00  0.00000000E+00
  0.00000000E+00  0.00000000E+00  0.00000000E+00
  0.00000000E+00  0.00000000E+00  0.00000000E+00
  0.00000000E+00  0.00000000E+00  0.00000000E+00
  0.00000000E+00  0.00000000E+00  0.00000000E+00
  0.00000000E+00  0.00000000E+00  0.00000000E+00
  0.00000000E+00  0.00000000E+00  0.00000000E+00
  0.00000000E+00  0.00000000E+00  0.00000000E+00
