 V  O                                   
    1.000000000000000     
    21.7760051331442952    0.2799277545129099    5.2228284276247283
    -1.9343064031988999    6.9437076624208220    1.5650646304335387
     4.2900156670391780    3.2831865509376490   16.0315822287848633
   V    O 
     3     5
Direct
  0.0903362423172462 -0.2396934165100671  0.8632298814334983
 -0.7778140789688863  0.0276234796652873  0.6190699041278536
  0.3355718926598169  0.1912589708525164 -0.6420608365129331
  0.7787268506473928  0.1973022808892351  0.5525800462532702
 -0.3724287431796622  0.3386858782069881 -0.2134467923857205
  0.8586613551010958  0.1327581917968057  0.9364712198466990
  0.1384607739697125  0.4860025753468379  0.3635253816485383
  0.9484757074532807  0.8660620397524037  0.5206311955888013
 
 -0.00000000E+00  0.00000000E+00  0.00000000E+00
 -0.00000000E+00  0.00000000E+00  0.00000000E+00
 -0.00000000E+00  0.00000000E+00  0.00000000E+00
 -0.00000000E+00  0.00000000E+00  0.00000000E+00
 -0.00000000E+00  0.00000000E+00  0.00000000E+00
 -0.00000000E+00  0.00000000E+00  0.00000000E+00
 -0.00000000E+00  0.00000000E+00  0.00000000E+00
 -0.00000000E+00  0.00000000E+00  0.00000000E+00
