 V  O 
 1.0000000000000000
     5.6670900000000000    0.0000000000000000    0.0000000000000000
    -0.5636415908790282    4.6868296872226285    0.0000000000000000
    -0.0113328182820666    0.8146804756246070    4.6585173266572548
   3   5
Cartesian
  2.3702936848029870  0.4656202176311806  1.6261486432162480
  2.3589167498151973  4.0927869955106377  4.6440293377713511
  3.2964457271750573  3.8583986428526340  4.6440293377713511
  4.2873733192932288  1.4030808881250991  2.5636286700327537
  1.6671287434864748  0.4655965343688324  1.3917786365121216
  3.3190908332299727  3.1665428230196171  0.7175980089982836
  3.7878457107064412  4.1040493653547587  0.7175980089982836
  4.9484009239462603  4.4499651845261816  2.3292586633286274
