 V  O                                   
   1.00000000000000     
     8.2186789851678945    0.0876139438896635   -2.1498984325925896
     4.2072773983505742    5.3813291365438243   -0.9820856970649552
     6.0921174410325571   -0.2776250088202268    0.8172800419682328
   V    O 
     1     4
Direct
  0.7502583325835245  0.6098374530092303  0.9468402767653610
  0.1436048540649978  0.0316407866746031 -0.1541108259116613
 -0.8389909068907540 -0.5768965193938952  0.7742226723621938
  0.5476915247104889  0.8206788455043531  0.5619977938939834
  0.8974361955317447  0.6147394342057086  0.3710500828901234
 
  0.00000000E+00  0.00000000E+00  0.00000000E+00
  0.00000000E+00  0.00000000E+00  0.00000000E+00
  0.00000000E+00  0.00000000E+00  0.00000000E+00
  0.00000000E+00  0.00000000E+00  0.00000000E+00
  0.00000000E+00  0.00000000E+00  0.00000000E+00
