 V  O                                   
    1.000000000000000     
    15.5827898179307134   -8.1613575584588602   -6.7777203188745379
   -22.3651041088366540   29.0763526792247227   15.3899084927964740
    -2.2249785171903063   10.1042375939642639    8.6832308114687198
   V    O 
     3     5
Direct
  0.0427593569623898 -0.0007050083418184  0.1725949057606161
  0.4146765169958569 -0.1044531323935335  0.3024502948969897
  0.3471067058956327  0.4494219717909992  0.0260689835712392
  0.5791513393782824  0.6916057129638901  0.1748383115449391
  0.5865467840360596 -0.2689655463297587 -0.9408602401264805
 -0.6987371971613435  0.1635953979502366  0.0343827218732777
  0.1768359536156981  0.0523747542064324  0.6478871245292126
  0.5516605402774224  0.0171258501535517  0.5826378979501996
 
  0.00000000E+00  0.00000000E+00  0.00000000E+00
  0.00000000E+00  0.00000000E+00  0.00000000E+00
  0.00000000E+00  0.00000000E+00  0.00000000E+00
  0.00000000E+00  0.00000000E+00  0.00000000E+00
  0.00000000E+00  0.00000000E+00  0.00000000E+00
  0.00000000E+00  0.00000000E+00  0.00000000E+00
  0.00000000E+00  0.00000000E+00  0.00000000E+00
  0.00000000E+00  0.00000000E+00  0.00000000E+00
