 V  O                                   
    1.000000000000000     
     6.0733696635528585    0.2674452736732225   -0.4252923602096116
    -5.2301951043608463   11.0714826528433221   -1.5811726262485046
     1.6232653443725389    0.5992193971694062    3.9551527196627188
   V    O 
     3     8
Direct
 -0.5715028271510663  0.3174829330262896 -0.0452536924245709
  0.9529808311532660  0.8673196571134457  0.5760597662897335
  0.7504944145160606  0.5520962942096179  0.5588684282838616
  0.2888933034663861  0.5993930994846454  0.6257464583402234
 -0.5432889067023621 -0.5386915915714090  0.0231033043106346
 -0.1093743102330936  0.6347749626846328 -0.8217466913395367
  0.3563648331325165  0.6868811781193122  0.1966032241839884
  0.7965387670860570  0.6682762105668483  0.0240540904796850
  0.0212417827818658  0.0839955373193895 -0.6875836713074587
  0.8307007465124594  0.3633184762921816  0.6253460789730184
  0.7269513654379109  0.2651432427550504  0.4248027042104215
 
  0.00000000E+00  0.00000000E+00  0.00000000E+00
  0.00000000E+00  0.00000000E+00  0.00000000E+00
  0.00000000E+00  0.00000000E+00  0.00000000E+00
  0.00000000E+00  0.00000000E+00  0.00000000E+00
  0.00000000E+00  0.00000000E+00  0.00000000E+00
  0.00000000E+00  0.00000000E+00  0.00000000E+00
  0.00000000E+00  0.00000000E+00  0.00000000E+00
  0.00000000E+00  0.00000000E+00  0.00000000E+00
  0.00000000E+00  0.00000000E+00  0.00000000E+00
  0.00000000E+00  0.00000000E+00  0.00000000E+00
  0.00000000E+00  0.00000000E+00  0.00000000E+00
