 V  O 
 1.0000000000000000
     4.6356939000078849    0.0000000000000000    0.0000000000000000
     1.6222015087448016    5.6239526007823368    0.0000000000000000
     0.2779812043631814    0.7544858715254084    3.9030362519024897
   3   6
Cartesian
  3.4502299732245998  0.8715109028205390  1.5088097926179111
  3.4502299732245998  3.6840109028205390  1.7431847926179111
  6.7314799732245998  5.0902609028205390  3.3838097926179111
  1.3408549732245998  4.6215109028205390  0.8056847926179111
  1.5752299732245998 -0.0659890971794610 -2.2411902073820889
  1.5752299732245998  4.6215109028205390  4.5556847926179111
  3.2158549732245998  5.0902609028205390  2.4463097926179111
  3.6846049732245998  1.3402609028205390  1.7431847926179111
  4.3877299732245998  3.4496359028205390  3.6181847926179111
