 V  O 
 1.0000000000000000
     5.8671600000000002    0.0000000000000000    0.0000000000000000
    -1.4589151071067097    5.0229275895990995    0.0000000000000000
    -3.1587362341385661   -3.6049185050172827    4.2942310352639472
   3   3
Cartesian
  0.7804858008563318  2.5957984682730482  1.7538498394225013
  2.8898142776668854 -0.4510759349403628  2.2226080992319139
 -0.6584613354664028 -2.4389479206637295  3.0846320372507985
 -1.7107071331346237 -2.5840417049523814  3.4778977154602706
 -3.2892349346976677  0.2402423405798447  3.7877264846545646
 -1.8303834133545474 -1.7358301383524011  2.8502529073460923
