 V  O                                   
   1.00000000000000     
     7.2275826001661132   -1.5370997971642053    0.7975697889892476
    -4.1918218405410537    5.2592312722951933    0.3283286346272991
     0.2838796936298646    1.8271938533293972    2.7342410186402120
   V    O 
     2     5
Direct
  0.4756210333554408  0.0418230581022599  0.9268993979379896
 -0.6062025544661850  0.4269994222561000  0.1411172543190624
  0.1215168350146267  0.6727989695834096 -0.2016544788786936
  0.3413874025912906  0.1972621797876273 -0.1655297539323135
  0.4567272470323483  0.7466356099487762  0.2109802414135384
  0.9432053959145769  0.0155142652028641  0.4960283203122485
  0.7677446405579088  0.3989664951189632  0.0921590188281611
 
  0.00000000E+00  0.00000000E+00  0.00000000E+00
  0.00000000E+00  0.00000000E+00  0.00000000E+00
  0.00000000E+00  0.00000000E+00  0.00000000E+00
  0.00000000E+00  0.00000000E+00  0.00000000E+00
  0.00000000E+00  0.00000000E+00  0.00000000E+00
  0.00000000E+00  0.00000000E+00  0.00000000E+00
  0.00000000E+00  0.00000000E+00  0.00000000E+00
