 V  O 
 1.0000000000000000
     3.1409635303313421    0.0000000000000000    0.0000000000000000
     0.2171897084732112    3.2743854312142160    0.0000000000000000
    -1.6522273752139129    0.5340671273688159    3.0333981776314438
   3   3
Cartesian
 -2.5454745682046802  3.0370387792915157  3.0010740888157219
 -0.6704745682046802  3.9745387792915157  0.8916990888157219
  2.3764004317953198  1.1620387792915157  0.6573240888157219
  1.4389004317953198  1.1620387792915157  1.1260740888157219
  2.1420254317953198  0.9276637792915157 -1.6864259111842781
  2.3764004317953198  1.1620387792915157  5.1104490888157219
