 V  O                                   
   1.00000000000000     
     5.2195368921631689    0.0000000000000000   -0.0000000000000000
    -4.2354636558974548    7.6524808746928938   -0.0000000000000000
    -0.2651034397681391   -0.2673021922256598    3.8839548816118885
   V    O 
     3     2
Direct
  0.0596773025090008 -0.2847823958481631 -0.5812890456855708
  0.1654266258088311  0.9998041007096024  0.3096798283931472
 -0.6174712105698118 -0.2788133121848743  0.7166228220330880
  0.6307071038818117  0.8236413766396848  0.2655418999429002
  0.2616601783701683  0.2401502306837435  0.7894444953164419
 
  0.00000000E+00  0.00000000E+00  0.00000000E+00
  0.00000000E+00  0.00000000E+00  0.00000000E+00
  0.00000000E+00  0.00000000E+00  0.00000000E+00
  0.00000000E+00  0.00000000E+00  0.00000000E+00
  0.00000000E+00  0.00000000E+00  0.00000000E+00
