 V  O                                   
    1.000000000000000     
    15.7565618705312787    1.1339901891871560   -0.1067476938180148
    11.9986995966337613   16.0887040598078350   -0.5708701320810332
    -5.7319410102732844    4.1366193014972792    7.2271418250160790
   V    O 
     3     6
Direct
  0.5395106956751713  0.0710497037581247  0.1124731525177178
 -0.1314157019966800  0.4192496344540432 -0.4447824375544251
  0.3787376097094609  0.3335990976880965  0.7947853956998696
 -0.9200847922677363 -0.4894900271541300  0.9179855121030666
 -0.6801183388880447  0.6741087715471153  0.6356191922343042
  0.1199915903107781 -0.9144033894979650 -0.4284512970387153
  0.6898855153102226  0.7888102671040335  0.8537736734435523
  0.5216495481703599  0.5351281452215256  0.7060864783085580
 -0.0181561260235322  0.0819477968791627  0.3525103302860864
 
  0.00000000E+00  0.00000000E+00  0.00000000E+00
  0.00000000E+00  0.00000000E+00  0.00000000E+00
  0.00000000E+00  0.00000000E+00  0.00000000E+00
  0.00000000E+00  0.00000000E+00  0.00000000E+00
  0.00000000E+00  0.00000000E+00  0.00000000E+00
  0.00000000E+00  0.00000000E+00  0.00000000E+00
  0.00000000E+00  0.00000000E+00  0.00000000E+00
  0.00000000E+00  0.00000000E+00  0.00000000E+00
  0.00000000E+00  0.00000000E+00  0.00000000E+00
