 V  O                                   
   1.00000000000000     
     4.4972701707014107    0.0844975270929083   -0.0829712081491967
     2.1801952818621539    2.3214311764965507   -0.3337963258942391
     0.0349475722948653    0.5037696677930485    3.7780093353191750
   V    O 
     1     2
Direct
 -0.0016375985786987 -0.1660739540234657  0.8359248802551144
  0.4999732173807730  0.3352128777350619  0.0638913863694128
  0.0016643811979254  0.3308610762884036  0.6001837333754730
 
  0.00000000E+00  0.00000000E+00  0.00000000E+00
  0.00000000E+00  0.00000000E+00  0.00000000E+00
  0.00000000E+00  0.00000000E+00  0.00000000E+00
