 V  O                                   
    1.000000000000000     
     9.6776402326141522    9.9152784032000643   -1.4903501260833727
     8.3742099672896817   11.0047871433489739   -3.7051656237139299
     3.2633618025835514    1.4883734677858982    5.9239096144721257
   V    O 
     3     5
Direct
  0.8082764316062370  0.2948052072268263  0.0328142232498072
  0.2363969894485420 -0.8745365583745495 -0.1852170418112143
  0.0244038613947264  0.5185255702857426  0.3534312267455746
 -0.6926553845701269 -0.3605708815205912 -0.8336522733561837
 -0.9153462357385101  0.0830018558621786 -0.5047874866271999
 -0.7572366625472600  0.5107071266635681 -0.3511534535384350
 -0.0729961330032970  0.3276547612845932  0.4024638836633936
 -0.6308428665903111 -0.4995970814277575  0.0861009216742581
 
  0.00000000E+00  0.00000000E+00  0.00000000E+00
  0.00000000E+00  0.00000000E+00  0.00000000E+00
  0.00000000E+00  0.00000000E+00  0.00000000E+00
  0.00000000E+00  0.00000000E+00  0.00000000E+00
  0.00000000E+00  0.00000000E+00  0.00000000E+00
  0.00000000E+00  0.00000000E+00  0.00000000E+00
  0.00000000E+00  0.00000000E+00  0.00000000E+00
  0.00000000E+00  0.00000000E+00  0.00000000E+00
