 V  O 
 1.0000000000000000
     4.0536199999999996    0.0000000000000000    0.0000000000000000
     1.8356542442878268    2.9692788130837577    0.0000000000000000
     1.4374551676224956    1.1978754367880597    3.1347482533554740
   3   5
Cartesian
  3.3237498061369819  1.1617701199372852  1.8896262471226797
  4.3545541979802298  2.8295979874666548  0.0732590666809174
  2.1206755573504310  1.8388968533317698  1.3329889997743483
  2.1193574728377529  2.4384251966310009  0.0732590666809174
  4.6975158020887564  1.5009347969760658  0.0732590666809174
  2.9102290222057552  2.8556027749864610  0.1611260602224714
  5.1282123136793105  1.7613030186215040  2.0361130330019810
  3.6133490278624625  2.8555844982560363  0.6298649665467154
