 V  O 
 1.0000000000000000
     4.0173300000000003    0.0000000000000000    0.0000000000000000
    -1.2760328418033242    3.3731833699844027    0.0000000000000000
    -0.9921091722651370   -1.4821723511851601    2.9528251919288482
   2   3
Cartesian
  1.8815235709076128  2.7249167125799967  1.0545424607935496
 -1.4656830804201813  2.2561957679184537  1.2889081962769422
 -0.5212185102288692 -0.7401661973597558  2.2264301947143514
  1.2496154468908287  1.2267536421096392  2.4607959301977442
  1.9527299480844094  2.6329961700106637  0.3514157260914522
