 V  O                                   
   1.00000000000000     
    44.0599485691295953    3.1060825323663934    0.1233699279821256
   -12.5618909767481952    5.9236621514531569   -8.5662226297354636
    -2.0014656087984664  -15.4131213993045204   32.0863319478892990
   V    O 
     2     2
Direct
 -0.8485348362189765 -0.9093238547342114  0.2134675441972235
 -0.5931267786572896  0.4692453029926386 -0.9571843674123994
  0.0162300346596590  0.6597068883850721 -0.0769796718291591
  0.4254215802166023  0.7803616633564969  0.8207064950443295
 
  0.00000000E+00  0.00000000E+00  0.00000000E+00
  0.00000000E+00  0.00000000E+00  0.00000000E+00
  0.00000000E+00  0.00000000E+00  0.00000000E+00
  0.00000000E+00  0.00000000E+00  0.00000000E+00
