 V  O                                   
   1.00000000000000     
     5.4247693750583128   -0.2521219700409155   -1.1294818003832676
     3.4995802083634060    1.7599499075376286   -0.9876853151536042
    -0.9719364053135040    2.5842811787161120    3.3175514604032306
   V    O 
     2     1
Direct
  0.5421641865564617 -0.0050902362473970  0.4942944346460454
  0.3591122594922402  0.6443447469968545  0.0024324288457742
  0.5987235539512981 -0.1392545107494573  0.0032731365081804
 
  0.00000000E+00  0.00000000E+00  0.00000000E+00
  0.00000000E+00  0.00000000E+00  0.00000000E+00
  0.00000000E+00  0.00000000E+00  0.00000000E+00
