 V  O 
 1.0000000000000000
     4.7404400000000004    0.0000000000000000    0.0000000000000000
     3.1148149576715087    1.5948849963448266    0.0000000000000000
    -0.1168696996833240    2.5424189828374741    3.3760310423637390
   2   1
Cartesian
  2.3604457487250947  0.9648738178875895  0.9682457029499203
  3.5668639008781766  1.4893864099782146  0.3598849091159746
  5.7971379370623302  1.2092767580701727  0.3598849091159746
