 V  O 
 1.0000000000000000
     4.3948930226088310    0.0000000000000000    0.0000000000000000
     1.1443898293279544    7.8874095731382878    0.0000000000000000
     2.2987304357707319    3.4847784606925427    3.2308657676502355
   3   7
Cartesian
  5.0440066438537583  7.2095315169154155  2.5763703838251182
  6.4502566438537583  6.7407815169154155 -0.0017546161748818
  7.6221316438537583  7.6782815169154155  2.5763703838251182
  0.5908816438537583  3.4595315169154155 -0.7048796161748818
  0.5908816438537583  5.8032815169154155  3.9826203838251182
  0.5908816438537583  8.3814065169154155  2.3419953838251182
  0.8252566438537583  3.6939065169154155 -0.4705046161748818
  5.2783816438537583  6.9751565169154155  3.9826203838251182
  5.9815066438537583  3.6939065169154155  2.1076203838251182
  6.2158816438537583  3.2251565169154155 -0.2361296161748818
