 V  O 
 1.0000000000000000
     4.5903827216056809    0.0000000000000000    0.0000000000000000
    -1.0724961536278563    3.6130175993158695    0.0000000000000000
     0.3785472308382830    0.8925152920953356    4.4760575664333953
   3   6
Cartesian
  1.9742585660747203  1.5235997790389355  0.8317787832166976
  2.4430085660747203  1.2892247790389355  0.5974037832166976
  3.3805085660747203  5.2735997790389355  5.0505287832166976
  0.5680085660747203  4.1017247790389355  2.4724037832166976
  1.2711335660747203  2.2267247790389355  4.3474037832166976
  1.2711335660747203  4.5704747790389355  2.9411537832166976
  1.5055085660747203  0.8204747790389355  1.0661537832166976
  2.4430085660747203  0.3517247790389355  1.5349037832166976
  2.6773835660747203  0.1173497790389355  1.3005287832166976
