 V  O                                   
    1.000000000000000     
     4.8043473358668791   -0.3568961758070688   -0.3739337343294821
    -1.3544596264384217    5.6640242300825347    0.2214264467674135
     0.3213320609733603    2.0072450924670413    4.1584204547262678
   V    O 
     3     6
Direct
 -0.0703732945043499  0.4139049759017021 -0.6295540884684523
 -0.1550164594681305  0.0303562792643368  0.0182892611516650
  0.6058958691444679 -0.3490244134270528 -0.2964777066981493
  0.2527150892368401 -0.0870167895801196  0.2756766574842748
 -0.2938083860253547 -0.6690070933455728  0.7712130769405757
  0.3347659949151407  0.7933510537096743  0.1128798969375436
  0.7521120691879554  0.6589980848392185  0.0944563263829011
  0.8404329989497901  0.0391291861872715  0.4806332271855889
  0.2332661185636448  0.6693087164505487  0.6728633490840535
 
  0.00000000E+00  0.00000000E+00  0.00000000E+00
  0.00000000E+00  0.00000000E+00  0.00000000E+00
  0.00000000E+00  0.00000000E+00  0.00000000E+00
  0.00000000E+00  0.00000000E+00  0.00000000E+00
  0.00000000E+00  0.00000000E+00  0.00000000E+00
  0.00000000E+00  0.00000000E+00  0.00000000E+00
  0.00000000E+00  0.00000000E+00  0.00000000E+00
  0.00000000E+00  0.00000000E+00  0.00000000E+00
  0.00000000E+00  0.00000000E+00  0.00000000E+00
