 V  O 
 1.0000000000000000
     4.6558700000000002    0.0000000000000000    0.0000000000000000
    -0.9470202746784011    5.2591040506390483    0.0000000000000000
     0.7262992846171029    1.8522703415755886    3.6716564455956568
   3   6
Cartesian
  2.1915073908055840  3.0608891859391067  2.6691473696902190
  2.1915234510346813  3.2952516602394617  1.9660251603586505
  2.6602708336189034  2.5921284441017698  3.3722695790217871
  4.7611754131712605  2.8038000840188877  3.5283149779596026
  0.0821610354084537  0.7171372317507205  0.0910203632863163
  1.0196401168656262  4.4671714114511181  0.5597807416955138
  2.8715036533438050  4.0210957471526134  0.1693735118353276
  4.0665301070865612  5.8733939274915556  2.2004237078454771
  0.1137974587035907  5.1702800274138019  1.9660251603586505
