 V  O 
 1.0000000000000000
     5.3261599999999998    0.0000000000000000    0.0000000000000000
     2.0204617482812641    2.0683992011534471    0.0000000000000000
     0.1971836113186505    4.1720601075359474    0.5544687296272683
   1   4
Cartesian
  5.5834456834736175  2.4929195839530935  0.2543736190911019
  4.6401150769905595  2.3643419069572698  0.0428715221747804
  2.5062955374463747  1.6202352943423175  0.0428715221747804
  1.0169609436575526  4.5203767768586660  0.4887420064172520
  4.9155125461130318  0.4312146020761919  0.0028444245829879
