 V  O                                   
    1.000000000000000     
    27.1570678220568560   -1.0737624541471016    2.4896571101138263
    -8.9018174271255823    8.2246014346084966   -0.7490826937557674
    -2.4676316953347781   -8.1550838461155717   18.2960173194601268
   V    O 
     3     6
Direct
 -0.0536169566056761 -0.5733276133158429 -0.1365812140756792
 -0.4725358364369443  0.8344445170843772  0.5711950529418907
  0.6369323624622036 -0.4627107236486611  0.2140877108879768
 -0.5627680391397138 -0.0530381854899443 -0.1112617383772087
  0.3455355285674556  0.4463610681137034  0.1635677244590210
 -0.4016184291557382 -0.7786074212320054 -0.9671818244423683
  0.0589577114357553  0.8522605742730331  0.0731043879956715
  0.3679776177764259  0.0549159889370106  0.9950756494361186
 -0.4188539589037616 -0.8202982047216788 -0.3019957488254284
 
  0.00000000E+00  0.00000000E+00  0.00000000E+00
  0.00000000E+00  0.00000000E+00  0.00000000E+00
  0.00000000E+00  0.00000000E+00  0.00000000E+00
  0.00000000E+00  0.00000000E+00  0.00000000E+00
  0.00000000E+00  0.00000000E+00  0.00000000E+00
  0.00000000E+00  0.00000000E+00  0.00000000E+00
  0.00000000E+00  0.00000000E+00  0.00000000E+00
  0.00000000E+00  0.00000000E+00  0.00000000E+00
  0.00000000E+00  0.00000000E+00  0.00000000E+00
