 V  O 
 1.0000000000000000
     5.3806500000000002    0.0000000000000000    0.0000000000000000
    -1.6776984955280922    2.1757066353262737    0.0000000000000000
    -0.8577421856411568   -2.3065038339847712    3.0283941408583330
   3   6
Cartesian
  4.2511749177035645  0.0127210578274332  0.7069180443005607
  3.7496873131572843 -0.0908625458871106  0.9597586711208228
  0.7128098423373910 -0.0908679052370247  1.1941260936818492
  0.5111369209174799  1.1846112041133963  1.1756528894226135
  2.4232215673989730 -0.9911074578846921  1.6444180184860751
  0.2397307741983400  0.5477925906532238  0.7069180443005607
  1.9173937075738556 -0.4560412844088156  1.8787854410471012
  1.0596692199955795 -1.5906248907754892  2.3290470819099185
  0.4741035817033059  1.0165659712559978  0.0037854926760729
