 V  O                                   
   1.00000000000000     
    32.9797632115735695  -26.7430641847781203   26.0699153820992429
   -56.8152909417720764   73.5868003038074647  -54.7911841254651151
    24.0782140436586758  -18.3185556384098014   29.6442755268301319
   V    O 
     2     1
Direct
 -0.0299143247700552  0.4658856213462924  0.1863745635767934
  0.0851781004882890  0.0524078751286682 -0.3210288052154099
  0.4447362242817683  0.9817065035250411  0.6346542416386124
 
  0.00000000E+00  0.00000000E+00  0.00000000E+00
  0.00000000E+00  0.00000000E+00  0.00000000E+00
  0.00000000E+00  0.00000000E+00  0.00000000E+00
