 V  O 
 1.0000000000000000
     4.5903827216056809    0.0000000000000000    0.0000000000000000
    -2.7104511087325807    7.3185243088849399    0.0000000000000000
     2.1501383245020373    1.5098471564536573    3.2460397322994665
   2   1
Cartesian
  1.7806599686875693  3.7891857326692984  2.7948948661497335
  2.0150349686875693  3.5548107326692984  3.0292698661497335
  2.2494099686875693  5.8985607326692984 -0.9551051338502665
