 V  O                                   
   1.00000000000000     
     5.6593019095690344    0.2523974149228529    0.7946877286835399
    -1.7535376738886916    2.5527286165544929    0.1646199248200905
    -1.3154475127767038    0.7879942047466292    2.6601889212327476
   V    O 
     2     1
Direct
  0.4208807215635437  0.3980981764156193  0.5221367789369457
 -0.0875671951962261  0.2688297034465953  0.8113251949219201
  0.1666864736326826  0.8330721201377783  0.1665280261411376
 
  0.00000000E+00  0.00000000E+00  0.00000000E+00
  0.00000000E+00  0.00000000E+00  0.00000000E+00
  0.00000000E+00  0.00000000E+00  0.00000000E+00
