 V  O                                   
   1.00000000000000     
     3.3731647022864868    0.3193707197349951    0.0177765355514003
    -0.6338894981423027    5.1557103465178402   -1.7820631368394271
    -1.1226309224893753   -0.9635621957070740    4.7069245815805623
   V    O 
     2     3
Direct
  0.0453659358056999  0.0204163031754321  0.6995073610388722
  0.7096536455656804  0.6055141401261862  0.9106893991347310
  0.9249662506307322  0.9393388659521335  0.2851937609731593
  0.1643490704880718  0.6908654460103126  0.7180616663933794
  0.6556650975098079  0.2438652447359361  0.8865478124598516
 
  0.00000000E+00  0.00000000E+00  0.00000000E+00
  0.00000000E+00  0.00000000E+00  0.00000000E+00
  0.00000000E+00  0.00000000E+00  0.00000000E+00
  0.00000000E+00  0.00000000E+00  0.00000000E+00
  0.00000000E+00  0.00000000E+00  0.00000000E+00
