 V  O 
 1.0000000000000000
     4.8079970689913782    0.0000000000000000    0.0000000000000000
    -2.3687038308670894    7.9073722562202127    0.0000000000000000
    -0.2257188118962676   -1.9821405532573366    8.1644015944486750
   3   6
Cartesian
 -4.0234211202193224 -1.4905091485185622  7.9624091305576705
  0.6640788797806776  6.2438658514814378  3.5092841305576705
  0.8984538797806776  6.0094908514814378  3.2749091305576705
 -0.0390461202193224  4.1344908514814378  6.7905341305576705
  0.8984538797806776  0.6188658514814378  1.8686591305576705
  0.8984538797806776  4.1344908514814378  3.7436591305576705
  1.6015788797806776  4.1344908514814378  3.7436591305576705
  3.4765788797806776  1.0876158514814378  0.9311591305576705
  5.5859538797806776  1.7907408514814378  4.9155341305576705
