 V  O                                   
   1.00000000000000     
     2.7677423127982408   -1.0749168969183744   -0.3659383925930589
    -0.9652827577832190    5.2088208599336356   -0.6310351075208652
    -0.3560260308146935   -1.2394957140130267    2.6451061370739555
   V    O 
     1     2
Direct
  0.5577819608135252  0.3525984363929403  0.1555206583404774
 -0.0291249018952845 -0.1751676310101139  0.6710097392844659
 -0.0286570589182335  0.3225691946171735  0.6734796023750527
 
  0.00000000E+00  0.00000000E+00  0.00000000E+00
  0.00000000E+00  0.00000000E+00  0.00000000E+00
  0.00000000E+00  0.00000000E+00  0.00000000E+00
